
     Program PWSCF v.7.5 starts on  8Sep2026 at 22:52:35

     This program is part of the open-source Quantum ESPRESSO suite
     for quantum simulation of materials; please cite
         "P. Giannozzi et al., J. Phys.:Condens. Matter 21 395502 (2009);
         "P. Giannozzi et al., J. Phys.:Condens. Matter 29 465901 (2017);
         "P. Giannozzi et al., J. Chem. Phys. 152 154105 (2020);
          URL http://www.quantum-espresso.org",
     in publications or presentations arising from this work. More details at
     http://www.quantum-espresso.org/quote

     Parallel version (MPI), running on     1 processors

     MPI processes distributed on     1 nodes
     0 MiB available memory on the printing compute node when the environment starts

     Reading input from qe.in

     Current dimensions of program PWSCF are:
     Max number of different atomic species (ntypx) = 10
     Max number of k-points (npk) =  40000
     Max angular momentum in pseudopotentials (lmaxx) =  4

     Subspace diagonalization in iterative solution of the eigenvalue problem:
     a serial algorithm will be used


     G-vector sticks info
     --------------------
     sticks:   dense  smooth     PW     G-vecs:    dense   smooth      PW
     Sum         859     859    253                16865    16865    2685

     Using Slab Decomposition



     bravais-lattice index     =            0
     lattice parameter (alat)  =       7.2549  a.u.
     unit-cell volume          =     270.0114 (a.u.)^3
     number of atoms/cell      =            2
     number of atomic types    =            1
     number of electrons       =         8.00
     number of Kohn-Sham states=           24
     kinetic-energy cutoff     =      60.0000  Ry
     charge density cutoff     =     240.0000  Ry
     scf convergence threshold =      1.0E-12
     mixing beta               =       0.3000
     number of iterations used =            8  plain     mixing
     Exchange-correlation= PBE
                           (   1   4   3   4   0   0   0)
     Non magnetic calculation with spin-orbit


     celldm(1)=   7.254916  celldm(2)=   0.000000  celldm(3)=   0.000000
     celldm(4)=   0.000000  celldm(5)=   0.000000  celldm(6)=   0.000000

     crystal axes: (cart. coord. in units of alat)
               a(1) = (   0.000000   0.707107   0.707107 )
               a(2) = (   0.707107   0.000000   0.707107 )
               a(3) = (   0.707107   0.707107   0.000000 )

     reciprocal axes: (cart. coord. in units 2 pi/alat)
               b(1) = ( -0.707107  0.707107  0.707107 )
               b(2) = (  0.707107 -0.707107  0.707107 )
               b(3) = (  0.707107  0.707107 -0.707107 )


     PseudoPot. # 1 for Si read from file:
     ./pseudo/Si_r.upf
     MD5 check sum: d8e8ea3dd55db7858206a05f373c9c65
     Pseudo is Norm-conserving + core correction, Zval =  4.0
     Generated using ONCVPSP code by D. R. Hamann
     Using radial grid of 1528 points, 10 beta functions with:
                l(1) =   0
                l(2) =   0
                l(3) =   1
                l(4) =   1
                l(5) =   1
                l(6) =   1
                l(7) =   2
                l(8) =   2
                l(9) =   2
               l(10) =   2

     atomic species   valence    mass     pseudopotential
     Si                4.00    28.08550     Si( 1.00)

     No symmetry found


                                    s                        frac. trans.

      isym =  1     identity

 cryst.   s( 1) = (     1          0          0      )
                  (     0          1          0      )
                  (     0          0          1      )

 cart.    s( 1) = (  1.0000000 -0.0000000  0.0000000 )
                  ( -0.0000000  1.0000000  0.0000000 )
                  ( -0.0000000  0.0000000  1.0000000 )


   Cartesian axes

     site n.     atom                  positions (alat units)
         1        Si     tau(   1) = (   0.0000000   0.0000000   0.0000000  )
         2        Si     tau(   2) = (   0.3535534   0.3535534   0.3535534  )

   Crystallographic axes

     site n.     atom                  positions (cryst. coord.)
         1        Si     tau(   1) = (  0.0000000  0.0000000  0.0000000  )
         2        Si     tau(   2) = (  0.2500000  0.2500000  0.2500000  )

     number of k points=     8  Fermi-Dirac smearing, width (Ry)=  0.0020
                       cart. coord. in units 2pi/alat
        k(    1) = (   0.0000000   0.0000000   0.0000000), wk =   0.1250000
        k(    2) = (  -0.3535534  -0.3535534   0.3535534), wk =   0.1250000
        k(    3) = (  -0.3535534   0.3535534  -0.3535534), wk =   0.1250000
        k(    4) = (  -0.7071068   0.0000000   0.0000000), wk =   0.1250000
        k(    5) = (   0.3535534  -0.3535534  -0.3535534), wk =   0.1250000
        k(    6) = (   0.0000000  -0.7071068   0.0000000), wk =   0.1250000
        k(    7) = (   0.0000000   0.0000000  -0.7071068), wk =   0.1250000
        k(    8) = (  -0.3535534  -0.3535534  -0.3535534), wk =   0.1250000

                       cryst. coord.
        k(    1) = (   0.0000000   0.0000000   0.0000000), wk =   0.1250000
        k(    2) = (  -0.0000000  -0.0000000  -0.5000000), wk =   0.1250000
        k(    3) = (   0.0000000  -0.5000000   0.0000000), wk =   0.1250000
        k(    4) = (   0.0000000  -0.5000000  -0.5000000), wk =   0.1250000
        k(    5) = (  -0.5000000   0.0000000  -0.0000000), wk =   0.1250000
        k(    6) = (  -0.5000000   0.0000000  -0.5000000), wk =   0.1250000
        k(    7) = (  -0.5000000  -0.5000000   0.0000000), wk =   0.1250000
        k(    8) = (  -0.5000000  -0.5000000  -0.5000000), wk =   0.1250000

     Dense  grid:    16865 G-vectors     FFT dimensions: (  48,  48,  48)

     Dynamical RAM for                 wfc:       1.55 MB

     Dynamical RAM for     wfc (w. buffer):      13.97 MB

     Dynamical RAM for           str. fact:       0.26 MB

     Dynamical RAM for           local pot:       0.00 MB

     Dynamical RAM for          nlocal pot:       2.20 MB

     Dynamical RAM for                qrad:       3.26 MB

     Dynamical RAM for          rho,v,vnew:      13.21 MB

     Dynamical RAM for               rhoin:       4.40 MB

     Dynamical RAM for            rho*nmix:      16.47 MB

     Dynamical RAM for           G-vectors:       1.09 MB

     Dynamical RAM for          h,s,v(r/c):       0.11 MB

     Dynamical RAM for          <psi|beta>:       0.05 MB

     Dynamical RAM for                 psi:       3.10 MB

     Dynamical RAM for                hpsi:       3.10 MB

     Dynamical RAM for      wfcinit/wfcrot:       2.34 MB

     Estimated static dynamical RAM per process >      45.66 MB

     Estimated max dynamical RAM per process >      68.49 MB

     Initial potential from superposition of free atoms

     starting charge       7.9988, renormalised to       8.0000
     Starting wfcs are   16 randomized atomic wfcs +    8 random wfcs

     total cpu time spent up to now is        1.0 secs

     Self-consistent Calculation

     iteration #  1     ecut=    60.00 Ry     beta= 0.30
     Davidson diagonalization with overlap

---- Real-time Memory Report at c_bands before calling an iterative solver
             0 MiB given to the printing process from OS
             0 MiB allocation reported by mallinfo(arena+hblkhd)
             0 MiB available memory on the node where the printing process lives
------------------
     c_bands:  2 eigenvalues not converged
     c_bands:  3 eigenvalues not converged
     c_bands:  2 eigenvalues not converged
     c_bands:  4 eigenvalues not converged
     c_bands:  2 eigenvalues not converged
     c_bands:  3 eigenvalues not converged
     c_bands:  4 eigenvalues not converged
     c_bands:  3 eigenvalues not converged
     ethr =  1.00E-10,  avg # of iterations = 50.0

     total cpu time spent up to now is        9.2 secs

     total energy              =     -16.74439638 Ry
     estimated scf accuracy    <       0.11088651 Ry

     iteration #  2     ecut=    60.00 Ry     beta= 0.30
     Davidson diagonalization with overlap

---- Real-time Memory Report at c_bands before calling an iterative solver
             0 MiB given to the printing process from OS
             0 MiB allocation reported by mallinfo(arena+hblkhd)
             0 MiB available memory on the node where the printing process lives
------------------
     ethr =  1.39E-03,  avg # of iterations =  1.0

     total cpu time spent up to now is        9.9 secs

     total energy              =     -16.73337842 Ry
     estimated scf accuracy    <       0.04599662 Ry

     iteration #  3     ecut=    60.00 Ry     beta= 0.30
     Davidson diagonalization with overlap

---- Real-time Memory Report at c_bands before calling an iterative solver
             0 MiB given to the printing process from OS
             0 MiB allocation reported by mallinfo(arena+hblkhd)
             0 MiB available memory on the node where the printing process lives
------------------
     ethr =  5.75E-04,  avg # of iterations =  1.0

     total cpu time spent up to now is       10.6 secs

     total energy              =     -16.73604957 Ry
     estimated scf accuracy    <       0.00047891 Ry

     iteration #  4     ecut=    60.00 Ry     beta= 0.30
     Davidson diagonalization with overlap

---- Real-time Memory Report at c_bands before calling an iterative solver
             0 MiB given to the printing process from OS
             0 MiB allocation reported by mallinfo(arena+hblkhd)
             0 MiB available memory on the node where the printing process lives
------------------
     ethr =  5.99E-06,  avg # of iterations =  4.5

     total cpu time spent up to now is       11.5 secs

     total energy              =     -16.73608655 Ry
     estimated scf accuracy    <       0.00001725 Ry

     iteration #  5     ecut=    60.00 Ry     beta= 0.30
     Davidson diagonalization with overlap

---- Real-time Memory Report at c_bands before calling an iterative solver
             0 MiB given to the printing process from OS
             0 MiB allocation reported by mallinfo(arena+hblkhd)
             0 MiB available memory on the node where the printing process lives
------------------
     ethr =  2.16E-07,  avg # of iterations =  5.1

     total cpu time spent up to now is       12.5 secs

     total energy              =     -16.73608994 Ry
     estimated scf accuracy    <       0.00000080 Ry

     iteration #  6     ecut=    60.00 Ry     beta= 0.30
     Davidson diagonalization with overlap

---- Real-time Memory Report at c_bands before calling an iterative solver
             0 MiB given to the printing process from OS
             0 MiB allocation reported by mallinfo(arena+hblkhd)
             0 MiB available memory on the node where the printing process lives
------------------
     ethr =  9.96E-09,  avg # of iterations =  7.9

     total cpu time spent up to now is       13.6 secs

     total energy              =     -16.73609015 Ry
     estimated scf accuracy    <       0.00000018 Ry

     iteration #  7     ecut=    60.00 Ry     beta= 0.30
     Davidson diagonalization with overlap

---- Real-time Memory Report at c_bands before calling an iterative solver
             0 MiB given to the printing process from OS
             0 MiB allocation reported by mallinfo(arena+hblkhd)
             0 MiB available memory on the node where the printing process lives
------------------
     c_bands:  1 eigenvalues not converged
     ethr =  2.29E-09,  avg # of iterations =  9.4

     total cpu time spent up to now is       14.8 secs

     total energy              =     -16.73609024 Ry
     estimated scf accuracy    <       0.00000005 Ry

     iteration #  8     ecut=    60.00 Ry     beta= 0.30
     Davidson diagonalization with overlap

---- Real-time Memory Report at c_bands before calling an iterative solver
             0 MiB given to the printing process from OS
             0 MiB allocation reported by mallinfo(arena+hblkhd)
             0 MiB available memory on the node where the printing process lives
------------------
     ethr =  6.17E-10,  avg # of iterations =  2.6

     total cpu time spent up to now is       15.6 secs

     total energy              =     -16.73609025 Ry
     estimated scf accuracy    <          1.6E-09 Ry

     iteration #  9     ecut=    60.00 Ry     beta= 0.30
     Davidson diagonalization with overlap

---- Real-time Memory Report at c_bands before calling an iterative solver
             0 MiB given to the printing process from OS
             0 MiB allocation reported by mallinfo(arena+hblkhd)
             0 MiB available memory on the node where the printing process lives
------------------
     c_bands:  1 eigenvalues not converged
     c_bands:  1 eigenvalues not converged
     ethr =  1.97E-11,  avg # of iterations = 10.2

     total cpu time spent up to now is       16.8 secs

     total energy              =     -16.73609025 Ry
     estimated scf accuracy    <          3.5E-11 Ry

     iteration # 10     ecut=    60.00 Ry     beta= 0.30
     Davidson diagonalization with overlap

---- Real-time Memory Report at c_bands before calling an iterative solver
             0 MiB given to the printing process from OS
             0 MiB allocation reported by mallinfo(arena+hblkhd)
             0 MiB available memory on the node where the printing process lives
------------------
     c_bands:  1 eigenvalues not converged
     ethr =  4.40E-13,  avg # of iterations =  8.8

     total cpu time spent up to now is       18.1 secs

     total energy              =     -16.73609025 Ry
     estimated scf accuracy    <          8.6E-12 Ry

     iteration # 11     ecut=    60.00 Ry     beta= 0.30
     Davidson diagonalization with overlap

---- Real-time Memory Report at c_bands before calling an iterative solver
             0 MiB given to the printing process from OS
             0 MiB allocation reported by mallinfo(arena+hblkhd)
             0 MiB available memory on the node where the printing process lives
------------------
     ethr =  1.08E-13,  avg # of iterations =  5.2

     total cpu time spent up to now is       19.0 secs

     total energy              =     -16.73609025 Ry
     estimated scf accuracy    <          1.2E-12 Ry

     iteration # 12     ecut=    60.00 Ry     beta= 0.30
     Davidson diagonalization with overlap

---- Real-time Memory Report at c_bands before calling an iterative solver
             0 MiB given to the printing process from OS
             0 MiB allocation reported by mallinfo(arena+hblkhd)
             0 MiB available memory on the node where the printing process lives
------------------
     ethr =  1.00E-13,  avg # of iterations =  1.0

     total cpu time spent up to now is       19.7 secs

     End of self-consistent calculation

          k = 0.0000 0.0000 0.0000 (  2085 PWs)   bands (ev):

    -5.4873  -5.4873   6.5074   6.5074   6.5548   6.5548   6.5548   6.5548
     8.9497   8.9497   8.9840   8.9840   8.9840   8.9840   9.9064   9.9064
    14.1215  14.1215  14.1215  14.1215  14.5018  14.5018  17.6255  17.6255

     occupation numbers
     1.0000   1.0000   1.0000   1.0000   1.0000   1.0000   1.0000   1.0000
     0.0000   0.0000   0.0000   0.0000   0.0000   0.0000   0.0000   0.0000
     0.0000   0.0000   0.0000   0.0000   0.0000   0.0000   0.0000   0.0000

          k =-0.3536-0.3536 0.3536 (  2120 PWs)   bands (ev):

    -3.1354  -3.1354  -0.5076  -0.5076   5.2918   5.2918   5.3232   5.3232
     8.0249   8.0249   9.7302   9.7302   9.7443   9.7443  14.1845  14.1845
    17.0004  17.0004  17.0008  17.0008  17.7694  17.7694  17.7921  17.7921

     occupation numbers
     1.0000   1.0000   1.0000   1.0000   1.0000   1.0000   1.0000   1.0000
     0.0000   0.0000   0.0000   0.0000   0.0000   0.0000   0.0000   0.0000
     0.0000   0.0000   0.0000   0.0000   0.0000   0.0000   0.0000   0.0000

          k =-0.3536 0.3536-0.3536 (  2120 PWs)   bands (ev):

    -3.1354  -3.1354  -0.5076  -0.5076   5.2918   5.2918   5.3232   5.3232
     8.0249   8.0249   9.7302   9.7302   9.7443   9.7443  14.1845  14.1845
    17.0004  17.0004  17.0008  17.0008  17.7694  17.7694  17.7921  17.7921

     occupation numbers
     1.0000   1.0000   1.0000   1.0000   1.0000   1.0000   1.0000   1.0000
     0.0000   0.0000   0.0000   0.0000   0.0000   0.0000   0.0000   0.0000
     0.0000   0.0000   0.0000   0.0000   0.0000   0.0000   0.0000   0.0000

          k =-0.7071 0.0000 0.0000 (  2100 PWs)   bands (ev):

    -1.3203  -1.3203  -1.3203  -1.3203   3.6159   3.6159   3.6159   3.6159
     7.1329   7.1329   7.1329   7.1329  16.5764  16.5764  16.5764  16.5764
    17.4951  17.4951  17.4951  17.4951  18.9363  18.9363  18.9363  18.9363

     occupation numbers
     1.0000   1.0000   1.0000   1.0000   1.0000   1.0000   1.0000   1.0000
     0.0000   0.0000   0.0000   0.0000   0.0000   0.0000   0.0000   0.0000
     0.0000   0.0000   0.0000   0.0000   0.0000   0.0000   0.0000   0.0000

          k = 0.3536-0.3536-0.3536 (  2120 PWs)   bands (ev):

    -3.1354  -3.1354  -0.5076  -0.5076   5.2918   5.2918   5.3232   5.3232
     8.0249   8.0249   9.7302   9.7302   9.7443   9.7443  14.1845  14.1845
    17.0004  17.0004  17.0008  17.0008  17.7694  17.7694  17.7921  17.7921

     occupation numbers
     1.0000   1.0000   1.0000   1.0000   1.0000   1.0000   1.0000   1.0000
     0.0000   0.0000   0.0000   0.0000   0.0000   0.0000   0.0000   0.0000
     0.0000   0.0000   0.0000   0.0000   0.0000   0.0000   0.0000   0.0000

          k = 0.0000-0.7071 0.0000 (  2100 PWs)   bands (ev):

    -1.3203  -1.3203  -1.3203  -1.3203   3.6159   3.6159   3.6159   3.6159
     7.1329   7.1329   7.1329   7.1329  16.5764  16.5764  16.5764  16.5764
    17.4951  17.4951  17.4951  17.4951  18.9363  18.9363  18.9363  18.9363

     occupation numbers
     1.0000   1.0000   1.0000   1.0000   1.0000   1.0000   1.0000   1.0000
     0.0000   0.0000   0.0000   0.0000   0.0000   0.0000   0.0000   0.0000
     0.0000   0.0000   0.0000   0.0000   0.0000   0.0000   0.0000   0.0000

          k = 0.0000 0.0000-0.7071 (  2100 PWs)   bands (ev):

    -1.3203  -1.3203  -1.3203  -1.3203   3.6159   3.6159   3.6159   3.6159
     7.1329   7.1329   7.1329   7.1329  16.5764  16.5764  16.5764  16.5764
    17.4951  17.4951  17.4951  17.4951  18.9363  18.9363  18.9363  18.9363

     occupation numbers
     1.0000   1.0000   1.0000   1.0000   1.0000   1.0000   1.0000   1.0000
     0.0000   0.0000   0.0000   0.0000   0.0000   0.0000   0.0000   0.0000
     0.0000   0.0000   0.0000   0.0000   0.0000   0.0000   0.0000   0.0000

          k =-0.3536-0.3536-0.3536 (  2120 PWs)   bands (ev):

    -3.1354  -3.1354  -0.5076  -0.5076   5.2918   5.2918   5.3232   5.3232
     8.0249   8.0249   9.7302   9.7302   9.7443   9.7443  14.1845  14.1845
    17.0004  17.0004  17.0008  17.0008  17.7694  17.7694  17.7921  17.7921

     occupation numbers
     1.0000   1.0000   1.0000   1.0000   1.0000   1.0000   1.0000   1.0000
     0.0000   0.0000   0.0000   0.0000   0.0000   0.0000   0.0000   0.0000
     0.0000   0.0000   0.0000   0.0000   0.0000   0.0000   0.0000   0.0000

     the Fermi energy is     6.8301 ev

!    total energy              =     -16.73609025 Ry
     estimated scf accuracy    <          8.9E-14 Ry
     smearing contrib. (-TS)   =      -0.00000103 Ry
     internal energy E=F+TS    =     -16.73608922 Ry

     The total energy is F=E-TS. E is the sum of the following terms:
     one-electron contribution =       5.06473257 Ry
     hartree contribution      =       1.26295962 Ry
     xc contribution           =      -6.26285184 Ry
     ewald contribution        =     -16.80092958 Ry

     convergence has been achieved in  12 iterations

     Writing all to output data dir ./scratch/si8a.save/ :
     XML data file, charge density, pseudopotentials, collected wavefunctions

     init_run     :      0.91s CPU      0.94s WALL (       1 calls)
     electrons    :     17.83s CPU     18.72s WALL (       1 calls)

     Called by init_run:
     wfcinit      :      0.52s CPU      0.54s WALL (       1 calls)
     wfcinit:atom :      0.00s CPU      0.00s WALL (       8 calls)
     wfcinit:wfcr :      0.51s CPU      0.53s WALL (       8 calls)
     potinit      :      0.02s CPU      0.02s WALL (       1 calls)
     hinit0       :      0.37s CPU      0.38s WALL (       1 calls)

     Called by electrons:
     c_bands      :     16.39s CPU     17.19s WALL (      12 calls)
     sum_band     :      1.25s CPU      1.30s WALL (      12 calls)
     v_of_rho     :      0.16s CPU      0.18s WALL (      13 calls)
     v_h          :      0.01s CPU      0.01s WALL (      13 calls)
     v_xc         :      0.15s CPU      0.17s WALL (      13 calls)
     mix_rho      :      0.04s CPU      0.05s WALL (      12 calls)

     Called by c_bands:
     init_us_2    :      0.04s CPU      0.06s WALL (     200 calls)
     cegterg      :     15.73s CPU     16.50s WALL (     108 calls)

     Called by sum_band:
     sum_band:wei :      0.00s CPU      0.00s WALL (      12 calls)
     sum_band:loo :      1.21s CPU      1.25s WALL (      12 calls)
     sum_band:buf :      0.00s CPU      0.00s WALL (      96 calls)
     sum_band:ini :      0.02s CPU      0.03s WALL (      96 calls)

     Called by *egterg:
     cdiaghg      :      0.21s CPU      0.22s WALL (     950 calls)
     cegterg:over :      0.70s CPU      0.73s WALL (     854 calls)
     cegterg:upda :      0.43s CPU      0.45s WALL (     854 calls)
     cegterg:last :      0.62s CPU      0.64s WALL (     429 calls)
     h_psi        :     14.11s CPU     14.80s WALL (     970 calls)
     g_psi        :      0.03s CPU      0.03s WALL (     854 calls)

     Called by h_psi:
     h_psi:calbec :      0.63s CPU      0.65s WALL (     970 calls)
     vloc_psi     :     12.84s CPU     13.47s WALL (     970 calls)
                                        0.00s GPU  (     970 calls)
     add_vuspsi   :      0.61s CPU      0.64s WALL (     970 calls)

     General routines
     calbec       :      0.63s CPU      0.65s WALL (     970 calls)
     fft          :      0.40s CPU      0.41s WALL (     202 calls)
     ffts         :      0.02s CPU      0.02s WALL (      48 calls)
     fftw         :     12.61s CPU     13.03s WALL (   51376 calls)

     Parallel routines

     PWSCF        :     18.76s CPU     19.69s WALL


   This run was terminated on:  22:52:54   8Sep2026

=------------------------------------------------------------------------------=
   JOB DONE.
=------------------------------------------------------------------------------=
