
     Program PWSCF v.7.5 starts on  7Sep2026 at 19:21: 7

     This program is part of the open-source Quantum ESPRESSO suite
     for quantum simulation of materials; please cite
         "P. Giannozzi et al., J. Phys.:Condens. Matter 21 395502 (2009);
         "P. Giannozzi et al., J. Phys.:Condens. Matter 29 465901 (2017);
         "P. Giannozzi et al., J. Chem. Phys. 152 154105 (2020);
          URL http://www.quantum-espresso.org",
     in publications or presentations arising from this work. More details at
     http://www.quantum-espresso.org/quote

     Parallel version (MPI), running on     1 processors

     MPI processes distributed on     1 nodes
     0 MiB available memory on the printing compute node when the environment starts

     Reading input from qe.in

     Current dimensions of program PWSCF are:
     Max number of different atomic species (ntypx) = 10
     Max number of k-points (npk) =  40000
     Max angular momentum in pseudopotentials (lmaxx) =  4

     Subspace diagonalization in iterative solution of the eigenvalue problem:
     a serial algorithm will be used


     G-vector sticks info
     --------------------
     sticks:   dense  smooth     PW     G-vecs:    dense   smooth      PW
     Sum         949     949    249                22119    22119    2969

     Using Slab Decomposition



     bravais-lattice index     =            0
     lattice parameter (alat)  =      10.0000  a.u.
     unit-cell volume          =    1000.0000 (a.u.)^3
     number of atoms/cell      =            1
     number of atomic types    =            1
     number of electrons       =        10.00
     number of Kohn-Sham states=           24
     kinetic-energy cutoff     =      30.0000  Ry
     charge density cutoff     =     120.0000  Ry
     scf convergence threshold =      1.0E-10
     mixing beta               =       0.1000
     number of iterations used =            8  plain     mixing
     Exchange-correlation= PBESOL
                           (   1   4  10   8   0   0   0)
     Non magnetic calculation with spin-orbit


     celldm(1)=  10.000000  celldm(2)=   0.000000  celldm(3)=   0.000000
     celldm(4)=   0.000000  celldm(5)=   0.000000  celldm(6)=   0.000000

     crystal axes: (cart. coord. in units of alat)
               a(1) = (   1.000000   0.000000   0.000000 )
               a(2) = (   0.000000   1.000000   0.000000 )
               a(3) = (   0.000000   0.000000   1.000000 )

     reciprocal axes: (cart. coord. in units 2 pi/alat)
               b(1) = (  1.000000  0.000000  0.000000 )
               b(2) = (  0.000000  1.000000  0.000000 )
               b(3) = (  0.000000  0.000000  1.000000 )


     PseudoPot. # 1 for Mg read from file:
     ./pseudo/Mg.upf
     MD5 check sum: 33a612cbe3904028fb6f045b742bf6a3
     Pseudo is Norm-conserving, Zval = 10.0
     Generated using ONCVPSP code by D. R. Hamann
     Using radial grid of 1510 points,  6 beta functions with:
                l(1) =   0
                l(2) =   0
                l(3) =   1
                l(4) =   1
                l(5) =   1
                l(6) =   1

     atomic species   valence    mass     pseudopotential
     Mg               10.00    24.30500     Mg( 1.00)

     No symmetry found


                                    s                        frac. trans.

      isym =  1     identity

 cryst.   s( 1) = (     1          0          0      )
                  (     0          1          0      )
                  (     0          0          1      )

 cart.    s( 1) = (  1.0000000  0.0000000  0.0000000 )
                  (  0.0000000  1.0000000  0.0000000 )
                  (  0.0000000  0.0000000  1.0000000 )


   Cartesian axes

     site n.     atom                  positions (alat units)
         1        Mg     tau(   1) = (   0.1700000   0.2300000   0.3100000  )

   Crystallographic axes

     site n.     atom                  positions (cryst. coord.)
         1        Mg     tau(   1) = (  0.1700000  0.2300000  0.3100000  )

     number of k points=     3  Fermi-Dirac smearing, width (Ry)=  0.0020
                       cart. coord. in units 2pi/alat
        k(    1) = (   0.0000000   0.0000000   0.0000000), wk =   0.3333333
        k(    2) = (   0.1250000   0.0625000  -0.1875000), wk =   0.3333333
        k(    3) = (  -0.1250000  -0.0625000   0.1875000), wk =   0.3333333

                       cryst. coord.
        k(    1) = (   0.0000000   0.0000000   0.0000000), wk =   0.3333333
        k(    2) = (   0.1250000   0.0625000  -0.1875000), wk =   0.3333333
        k(    3) = (  -0.1250000  -0.0625000   0.1875000), wk =   0.3333333

     Dense  grid:    22119 G-vectors     FFT dimensions: (  40,  40,  40)

     Dynamical RAM for                 wfc:       2.03 MB

     Dynamical RAM for     wfc (w. buffer):       8.13 MB

     Dynamical RAM for           str. fact:       0.34 MB

     Dynamical RAM for           local pot:       0.00 MB

     Dynamical RAM for          nlocal pot:       0.59 MB

     Dynamical RAM for                qrad:       0.53 MB

     Dynamical RAM for          rho,v,vnew:       9.91 MB

     Dynamical RAM for               rhoin:       3.30 MB

     Dynamical RAM for            rho*nmix:      21.60 MB

     Dynamical RAM for           G-vectors:       1.43 MB

     Dynamical RAM for          h,s,v(r/c):       0.11 MB

     Dynamical RAM for          <psi|beta>:       0.01 MB

     Dynamical RAM for                 psi:       4.06 MB

     Dynamical RAM for                hpsi:       4.06 MB

     Dynamical RAM for      wfcinit/wfcrot:       3.06 MB

     Estimated static dynamical RAM per process >      28.82 MB

     Estimated max dynamical RAM per process >      58.66 MB

     Initial potential from superposition of free atoms

     starting charge       9.9992, renormalised to      10.0000

     negative rho (up, down):  7.037E-02 0.000E+00
     Starting wfcs are   10 randomized atomic wfcs +   14 random wfcs

     total cpu time spent up to now is        0.6 secs

     Self-consistent Calculation

     iteration #  1     ecut=    30.00 Ry     beta= 0.10
     Davidson diagonalization with overlap

---- Real-time Memory Report at c_bands before calling an iterative solver
             0 MiB given to the printing process from OS
             0 MiB allocation reported by mallinfo(arena+hblkhd)
             0 MiB available memory on the node where the printing process lives
------------------
     c_bands:  2 eigenvalues not converged
     c_bands:  1 eigenvalues not converged
     c_bands:  2 eigenvalues not converged
     ethr =  1.00E-10,  avg # of iterations = 40.0

     negative rho (up, down):  4.992E-02 0.000E+00

     total cpu time spent up to now is        2.0 secs

     total energy              =    -114.96910248 Ry
     estimated scf accuracy    <       0.85487759 Ry

     iteration #  2     ecut=    30.00 Ry     beta= 0.10
     Davidson diagonalization with overlap

---- Real-time Memory Report at c_bands before calling an iterative solver
             0 MiB given to the printing process from OS
             0 MiB allocation reported by mallinfo(arena+hblkhd)
             0 MiB available memory on the node where the printing process lives
------------------
     ethr =  8.55E-03,  avg # of iterations =  1.0

     negative rho (up, down):  2.010E-04 0.000E+00

     total cpu time spent up to now is        2.1 secs

     total energy              =    -114.54772047 Ry
     estimated scf accuracy    <       0.63371278 Ry

     iteration #  3     ecut=    30.00 Ry     beta= 0.10
     Davidson diagonalization with overlap

---- Real-time Memory Report at c_bands before calling an iterative solver
             0 MiB given to the printing process from OS
             0 MiB allocation reported by mallinfo(arena+hblkhd)
             0 MiB available memory on the node where the printing process lives
------------------
     ethr =  6.34E-03,  avg # of iterations =  2.0

     total cpu time spent up to now is        2.3 secs

     total energy              =    -114.65021697 Ry
     estimated scf accuracy    <       0.01805415 Ry

     iteration #  4     ecut=    30.00 Ry     beta= 0.10
     Davidson diagonalization with overlap

---- Real-time Memory Report at c_bands before calling an iterative solver
             0 MiB given to the printing process from OS
             0 MiB allocation reported by mallinfo(arena+hblkhd)
             0 MiB available memory on the node where the printing process lives
------------------
     ethr =  1.81E-04,  avg # of iterations =  3.7

     total cpu time spent up to now is        2.5 secs

     total energy              =    -114.65063615 Ry
     estimated scf accuracy    <       0.00539298 Ry

     iteration #  5     ecut=    30.00 Ry     beta= 0.10
     Davidson diagonalization with overlap

---- Real-time Memory Report at c_bands before calling an iterative solver
             0 MiB given to the printing process from OS
             0 MiB allocation reported by mallinfo(arena+hblkhd)
             0 MiB available memory on the node where the printing process lives
------------------
     ethr =  5.39E-05,  avg # of iterations =  2.0

     total cpu time spent up to now is        2.7 secs

     total energy              =    -114.65155387 Ry
     estimated scf accuracy    <       0.00033564 Ry

     iteration #  6     ecut=    30.00 Ry     beta= 0.10
     Davidson diagonalization with overlap

---- Real-time Memory Report at c_bands before calling an iterative solver
             0 MiB given to the printing process from OS
             0 MiB allocation reported by mallinfo(arena+hblkhd)
             0 MiB available memory on the node where the printing process lives
------------------
     ethr =  3.36E-06,  avg # of iterations =  3.3

     total cpu time spent up to now is        2.8 secs

     total energy              =    -114.65201953 Ry
     estimated scf accuracy    <       0.00012010 Ry

     iteration #  7     ecut=    30.00 Ry     beta= 0.10
     Davidson diagonalization with overlap

---- Real-time Memory Report at c_bands before calling an iterative solver
             0 MiB given to the printing process from OS
             0 MiB allocation reported by mallinfo(arena+hblkhd)
             0 MiB available memory on the node where the printing process lives
------------------
     ethr =  1.20E-06,  avg # of iterations =  3.7

     total cpu time spent up to now is        3.0 secs

     total energy              =    -114.65202075 Ry
     estimated scf accuracy    <       0.00000662 Ry

     iteration #  8     ecut=    30.00 Ry     beta= 0.10
     Davidson diagonalization with overlap

---- Real-time Memory Report at c_bands before calling an iterative solver
             0 MiB given to the printing process from OS
             0 MiB allocation reported by mallinfo(arena+hblkhd)
             0 MiB available memory on the node where the printing process lives
------------------
     c_bands:  1 eigenvalues not converged
     ethr =  6.62E-08,  avg # of iterations = 10.0

     total cpu time spent up to now is        3.3 secs

     total energy              =    -114.65202176 Ry
     estimated scf accuracy    <       0.00000054 Ry

     iteration #  9     ecut=    30.00 Ry     beta= 0.10
     Davidson diagonalization with overlap

---- Real-time Memory Report at c_bands before calling an iterative solver
             0 MiB given to the printing process from OS
             0 MiB allocation reported by mallinfo(arena+hblkhd)
             0 MiB available memory on the node where the printing process lives
------------------
     c_bands:  2 eigenvalues not converged
     ethr =  5.37E-09,  avg # of iterations = 10.7

     total cpu time spent up to now is        3.5 secs

     total energy              =    -114.65202182 Ry
     estimated scf accuracy    <       0.00000054 Ry

     iteration # 10     ecut=    30.00 Ry     beta= 0.10
     Davidson diagonalization with overlap

---- Real-time Memory Report at c_bands before calling an iterative solver
             0 MiB given to the printing process from OS
             0 MiB allocation reported by mallinfo(arena+hblkhd)
             0 MiB available memory on the node where the printing process lives
------------------
     c_bands:  2 eigenvalues not converged
     ethr =  5.37E-09,  avg # of iterations =  9.3

     total cpu time spent up to now is        3.8 secs

     total energy              =    -114.65202184 Ry
     estimated scf accuracy    <       0.00000004 Ry

     iteration # 11     ecut=    30.00 Ry     beta= 0.10
     Davidson diagonalization with overlap

---- Real-time Memory Report at c_bands before calling an iterative solver
             0 MiB given to the printing process from OS
             0 MiB allocation reported by mallinfo(arena+hblkhd)
             0 MiB available memory on the node where the printing process lives
------------------
     c_bands:  2 eigenvalues not converged
     ethr =  3.92E-10,  avg # of iterations =  8.0

     total cpu time spent up to now is        4.0 secs

     total energy              =    -114.65202186 Ry
     estimated scf accuracy    <       0.00000001 Ry

     iteration # 12     ecut=    30.00 Ry     beta= 0.10
     Davidson diagonalization with overlap

---- Real-time Memory Report at c_bands before calling an iterative solver
             0 MiB given to the printing process from OS
             0 MiB allocation reported by mallinfo(arena+hblkhd)
             0 MiB available memory on the node where the printing process lives
------------------
     c_bands:  2 eigenvalues not converged
     ethr =  1.32E-10,  avg # of iterations = 10.0

     total cpu time spent up to now is        4.3 secs

     total energy              =    -114.65202187 Ry
     estimated scf accuracy    <          2.0E-10 Ry

     iteration # 13     ecut=    30.00 Ry     beta= 0.10
     Davidson diagonalization with overlap

---- Real-time Memory Report at c_bands before calling an iterative solver
             0 MiB given to the printing process from OS
             0 MiB allocation reported by mallinfo(arena+hblkhd)
             0 MiB available memory on the node where the printing process lives
------------------
     c_bands:  2 eigenvalues not converged
     ethr =  2.04E-12,  avg # of iterations = 10.7

     total cpu time spent up to now is        4.6 secs

     total energy              =    -114.65202187 Ry
     estimated scf accuracy    <          3.5E-10 Ry

     iteration # 14     ecut=    30.00 Ry     beta= 0.10
     Davidson diagonalization with overlap

---- Real-time Memory Report at c_bands before calling an iterative solver
             0 MiB given to the printing process from OS
             0 MiB allocation reported by mallinfo(arena+hblkhd)
             0 MiB available memory on the node where the printing process lives
------------------
     c_bands:  2 eigenvalues not converged
     ethr =  2.04E-12,  avg # of iterations = 10.0

     total cpu time spent up to now is        4.9 secs

     total energy              =    -114.65202187 Ry
     estimated scf accuracy    <          1.1E-10 Ry

     iteration # 15     ecut=    30.00 Ry     beta= 0.10
     Davidson diagonalization with overlap

---- Real-time Memory Report at c_bands before calling an iterative solver
             0 MiB given to the printing process from OS
             0 MiB allocation reported by mallinfo(arena+hblkhd)
             0 MiB available memory on the node where the printing process lives
------------------
     c_bands:  2 eigenvalues not converged
     ethr =  1.11E-12,  avg # of iterations =  9.3

     total cpu time spent up to now is        5.2 secs

     End of self-consistent calculation

          k = 0.0000 0.0000 0.0000 (  2777 PWs)   bands (ev):

   -89.5262 -89.5262 -45.2113 -45.2113 -44.9742 -44.9742 -44.9691 -44.9691
    -4.3324  -4.3324   1.6468   1.6468   1.6553   1.6553   1.6601   1.6601
     1.7848   1.7848   2.7953   2.7953   2.7993   2.7993   6.9111   6.9111

     occupation numbers
     1.0000   1.0000   1.0000   1.0000   1.0000   1.0000   1.0000   1.0000
     1.0000   1.0000   0.0000   0.0000   0.0000   0.0000   0.0000   0.0000
     0.0000   0.0000   0.0000   0.0000   0.0000   0.0000   0.0000   0.0000

          k = 0.1250 0.0625-0.1875 (  2770 PWs)   bands (ev):

   -89.5214 -89.5214 -45.1887 -45.1887 -44.9685 -44.9685 -44.8685 -44.8685
    -4.1545  -4.1545   0.3509   0.3509   0.9830   0.9830   1.5331   1.5331
     2.9528   2.9528   3.6640   3.6640   4.2603   4.2603   4.9181   4.9181

     occupation numbers
     1.0000   1.0000   1.0000   1.0000   1.0000   1.0000   1.0000   1.0000
     1.0000   1.0000   0.0000   0.0000   0.0000   0.0000   0.0000   0.0000
     0.0000   0.0000   0.0000   0.0000   0.0000   0.0000   0.0000   0.0000

          k =-0.1250-0.0625 0.1875 (  2770 PWs)   bands (ev):

   -89.5214 -89.5214 -45.1887 -45.1887 -44.9685 -44.9685 -44.8685 -44.8685
    -4.1545  -4.1545   0.3509   0.3509   0.9830   0.9830   1.5331   1.5331
     2.9528   2.9528   3.6640   3.6640   4.2603   4.2603   4.9181   4.9181

     occupation numbers
     1.0000   1.0000   1.0000   1.0000   1.0000   1.0000   1.0000   1.0000
     1.0000   1.0000   0.0000   0.0000   0.0000   0.0000   0.0000   0.0000
     0.0000   0.0000   0.0000   0.0000   0.0000   0.0000   0.0000   0.0000

     the Fermi energy is    -1.9088 ev

!    total energy              =    -114.65202187 Ry
     estimated scf accuracy    <          1.4E-11 Ry
     smearing contrib. (-TS)   =       0.00000000 Ry
     internal energy E=F+TS    =    -114.65202187 Ry

     The total energy is F=E-TS. E is the sum of the following terms:
     one-electron contribution =    -128.95849758 Ry
     hartree contribution      =      57.03356956 Ry
     xc contribution           =     -14.35411901 Ry
     ewald contribution        =     -28.37297483 Ry

     convergence has been achieved in  15 iterations

     Writing all to output data dir ./scratch/mg_soc_qe_v1.save/ :
     XML data file, charge density, pseudopotentials, collected wavefunctions

     init_run     :      0.57s CPU      0.59s WALL (       1 calls)
     electrons    :      4.31s CPU      4.55s WALL (       1 calls)

     Called by init_run:
     wfcinit      :      0.28s CPU      0.29s WALL (       1 calls)
     wfcinit:atom :      0.00s CPU      0.00s WALL (       3 calls)
     wfcinit:wfcr :      0.27s CPU      0.28s WALL (       3 calls)
     potinit      :      0.01s CPU      0.01s WALL (       1 calls)
     hinit0       :      0.28s CPU      0.29s WALL (       1 calls)

     Called by electrons:
     c_bands      :      3.84s CPU      4.04s WALL (      15 calls)
     sum_band     :      0.31s CPU      0.32s WALL (      15 calls)
     v_of_rho     :      0.11s CPU      0.12s WALL (      16 calls)
     v_h          :      0.00s CPU      0.01s WALL (      16 calls)
     v_xc         :      0.11s CPU      0.12s WALL (      16 calls)
     mix_rho      :      0.05s CPU      0.07s WALL (      15 calls)

     Called by c_bands:
     init_us_2    :      0.01s CPU      0.01s WALL (      93 calls)
     cegterg      :      3.80s CPU      3.99s WALL (      48 calls)

     Called by sum_band:
     sum_band:wei :      0.00s CPU      0.00s WALL (      15 calls)
     sum_band:loo :      0.29s CPU      0.30s WALL (      15 calls)
     sum_band:buf :      0.00s CPU      0.00s WALL (      45 calls)
     sum_band:ini :      0.01s CPU      0.01s WALL (      45 calls)

     Called by *egterg:
     cdiaghg      :      0.09s CPU      0.10s WALL (     446 calls)
     cegterg:over :      0.34s CPU      0.35s WALL (     401 calls)
     cegterg:upda :      0.23s CPU      0.24s WALL (     401 calls)
     cegterg:last :      0.37s CPU      0.38s WALL (     191 calls)
     h_psi        :      2.95s CPU      3.11s WALL (     452 calls)
     g_psi        :      0.01s CPU      0.01s WALL (     401 calls)

     Called by h_psi:
     h_psi:calbec :      0.08s CPU      0.08s WALL (     452 calls)
     vloc_psi     :      2.79s CPU      2.94s WALL (     452 calls)
                                        0.00s GPU  (     452 calls)
     add_vuspsi   :      0.07s CPU      0.07s WALL (     452 calls)

     General routines
     calbec       :      0.08s CPU      0.08s WALL (     452 calls)
     fft          :      0.30s CPU      0.31s WALL (     249 calls)
     ffts         :      0.01s CPU      0.01s WALL (      60 calls)
     fftw         :      2.71s CPU      2.80s WALL (   21536 calls)

     Parallel routines

     PWSCF        :      4.90s CPU      5.16s WALL


   This run was terminated on:  19:21:12   7Sep2026

=------------------------------------------------------------------------------=
   JOB DONE.
=------------------------------------------------------------------------------=
