
     Program PWSCF v.7.5 starts on  7Sep2026 at  8:18:54

     This program is part of the open-source Quantum ESPRESSO suite
     for quantum simulation of materials; please cite
         "P. Giannozzi et al., J. Phys.:Condens. Matter 21 395502 (2009);
         "P. Giannozzi et al., J. Phys.:Condens. Matter 29 465901 (2017);
         "P. Giannozzi et al., J. Chem. Phys. 152 154105 (2020);
          URL http://www.quantum-espresso.org",
     in publications or presentations arising from this work. More details at
     http://www.quantum-espresso.org/quote

     Parallel version (MPI), running on     1 processors

     MPI processes distributed on     1 nodes
     0 MiB available memory on the printing compute node when the environment starts

     Reading input from qe.in

     Current dimensions of program PWSCF are:
     Max number of different atomic species (ntypx) = 10
     Max number of k-points (npk) =  40000
     Max angular momentum in pseudopotentials (lmaxx) =  4

     Subspace diagonalization in iterative solution of the eigenvalue problem:
     a serial algorithm will be used


     G-vector sticks info
     --------------------
     sticks:   dense  smooth     PW     G-vecs:    dense   smooth      PW
     Sum         949     949    249                22119    22119    2969

     Using Slab Decomposition



     bravais-lattice index     =            0
     lattice parameter (alat)  =      10.0000  a.u.
     unit-cell volume          =    1000.0000 (a.u.)^3
     number of atoms/cell      =            1
     number of atomic types    =            1
     number of electrons       =        10.00
     number of Kohn-Sham states=           24
     kinetic-energy cutoff     =      30.0000  Ry
     charge density cutoff     =     120.0000  Ry
     scf convergence threshold =      1.0E-10
     mixing beta               =       0.1000
     number of iterations used =            8  plain     mixing
     Exchange-correlation= PBESOL
                           (   1   4  10   8   0   0   0)
     Non magnetic calculation with spin-orbit


     celldm(1)=  10.000000  celldm(2)=   0.000000  celldm(3)=   0.000000
     celldm(4)=   0.000000  celldm(5)=   0.000000  celldm(6)=   0.000000

     crystal axes: (cart. coord. in units of alat)
               a(1) = (   1.000000   0.000000   0.000000 )
               a(2) = (   0.000000   1.000000   0.000000 )
               a(3) = (   0.000000   0.000000   1.000000 )

     reciprocal axes: (cart. coord. in units 2 pi/alat)
               b(1) = (  1.000000  0.000000  0.000000 )
               b(2) = (  0.000000  1.000000  0.000000 )
               b(3) = (  0.000000  0.000000  1.000000 )


     PseudoPot. # 1 for Mg read from file:
     ./pseudo/Mg.upf
     MD5 check sum: 33a612cbe3904028fb6f045b742bf6a3
     Pseudo is Norm-conserving, Zval = 10.0
     Generated using ONCVPSP code by D. R. Hamann
     Using radial grid of 1510 points,  6 beta functions with:
                l(1) =   0
                l(2) =   0
                l(3) =   1
                l(4) =   1
                l(5) =   1
                l(6) =   1

     atomic species   valence    mass     pseudopotential
     Mg               10.00    24.30500     Mg( 1.00)

     No symmetry found


                                    s                        frac. trans.

      isym =  1     identity

 cryst.   s( 1) = (     1          0          0      )
                  (     0          1          0      )
                  (     0          0          1      )

 cart.    s( 1) = (  1.0000000  0.0000000  0.0000000 )
                  (  0.0000000  1.0000000  0.0000000 )
                  (  0.0000000  0.0000000  1.0000000 )


   Cartesian axes

     site n.     atom                  positions (alat units)
         1        Mg     tau(   1) = (   0.1700000   0.2300000   0.3100000  )

   Crystallographic axes

     site n.     atom                  positions (cryst. coord.)
         1        Mg     tau(   1) = (  0.1700000  0.2300000  0.3100000  )

     number of k points=     3  Fermi-Dirac smearing, width (Ry)=  0.0020
                       cart. coord. in units 2pi/alat
        k(    1) = (   0.0000000   0.0000000   0.0000000), wk =   0.3333333
        k(    2) = (   0.1250000   0.0625000  -0.1875000), wk =   0.3333333
        k(    3) = (  -0.1250000  -0.0625000   0.1875000), wk =   0.3333333

                       cryst. coord.
        k(    1) = (   0.0000000   0.0000000   0.0000000), wk =   0.3333333
        k(    2) = (   0.1250000   0.0625000  -0.1875000), wk =   0.3333333
        k(    3) = (  -0.1250000  -0.0625000   0.1875000), wk =   0.3333333

     Dense  grid:    22119 G-vectors     FFT dimensions: (  36,  36,  36)

     Dynamical RAM for                 wfc:       2.03 MB

     Dynamical RAM for     wfc (w. buffer):       8.13 MB

     Dynamical RAM for           str. fact:       0.34 MB

     Dynamical RAM for           local pot:       0.00 MB

     Dynamical RAM for          nlocal pot:       0.59 MB

     Dynamical RAM for                qrad:       0.53 MB

     Dynamical RAM for          rho,v,vnew:       8.32 MB

     Dynamical RAM for               rhoin:       2.77 MB

     Dynamical RAM for            rho*nmix:      21.60 MB

     Dynamical RAM for           G-vectors:       1.43 MB

     Dynamical RAM for          h,s,v(r/c):       0.11 MB

     Dynamical RAM for          <psi|beta>:       0.01 MB

     Dynamical RAM for                 psi:       4.06 MB

     Dynamical RAM for                hpsi:       4.06 MB

     Dynamical RAM for      wfcinit/wfcrot:       3.06 MB

     Estimated static dynamical RAM per process >      25.64 MB

     Estimated max dynamical RAM per process >      55.49 MB

     Initial potential from superposition of free atoms

     starting charge       9.9992, renormalised to      10.0000

     negative rho (up, down):  7.069E-02 0.000E+00
     Starting wfcs are   10 randomized atomic wfcs +   14 random wfcs

     total cpu time spent up to now is        0.6 secs

     Self-consistent Calculation

     iteration #  1     ecut=    30.00 Ry     beta= 0.10
     Davidson diagonalization with overlap

---- Real-time Memory Report at c_bands before calling an iterative solver
             0 MiB given to the printing process from OS
             0 MiB allocation reported by mallinfo(arena+hblkhd)
             0 MiB available memory on the node where the printing process lives
------------------
     c_bands:  2 eigenvalues not converged
     c_bands:  2 eigenvalues not converged
     ethr =  1.00E-10,  avg # of iterations = 39.3

     negative rho (up, down):  5.026E-02 0.000E+00

     total cpu time spent up to now is        1.6 secs

     total energy              =    -114.96899372 Ry
     estimated scf accuracy    <       0.85456440 Ry

     iteration #  2     ecut=    30.00 Ry     beta= 0.10
     Davidson diagonalization with overlap

---- Real-time Memory Report at c_bands before calling an iterative solver
             0 MiB given to the printing process from OS
             0 MiB allocation reported by mallinfo(arena+hblkhd)
             0 MiB available memory on the node where the printing process lives
------------------
     ethr =  8.55E-03,  avg # of iterations =  1.0

     negative rho (up, down):  2.476E-04 0.000E+00

     total cpu time spent up to now is        1.7 secs

     total energy              =    -114.54752428 Ry
     estimated scf accuracy    <       0.63360145 Ry

     iteration #  3     ecut=    30.00 Ry     beta= 0.10
     Davidson diagonalization with overlap

---- Real-time Memory Report at c_bands before calling an iterative solver
             0 MiB given to the printing process from OS
             0 MiB allocation reported by mallinfo(arena+hblkhd)
             0 MiB available memory on the node where the printing process lives
------------------
     ethr =  6.34E-03,  avg # of iterations =  2.0

     total cpu time spent up to now is        1.9 secs

     total energy              =    -114.64994342 Ry
     estimated scf accuracy    <       0.01797901 Ry

     iteration #  4     ecut=    30.00 Ry     beta= 0.10
     Davidson diagonalization with overlap

---- Real-time Memory Report at c_bands before calling an iterative solver
             0 MiB given to the printing process from OS
             0 MiB allocation reported by mallinfo(arena+hblkhd)
             0 MiB available memory on the node where the printing process lives
------------------
     ethr =  1.80E-04,  avg # of iterations =  3.7

     total cpu time spent up to now is        2.0 secs

     total energy              =    -114.65064541 Ry
     estimated scf accuracy    <       0.00536047 Ry

     iteration #  5     ecut=    30.00 Ry     beta= 0.10
     Davidson diagonalization with overlap

---- Real-time Memory Report at c_bands before calling an iterative solver
             0 MiB given to the printing process from OS
             0 MiB allocation reported by mallinfo(arena+hblkhd)
             0 MiB available memory on the node where the printing process lives
------------------
     ethr =  5.36E-05,  avg # of iterations =  2.0

     total cpu time spent up to now is        2.2 secs

     total energy              =    -114.65150016 Ry
     estimated scf accuracy    <       0.00031289 Ry

     iteration #  6     ecut=    30.00 Ry     beta= 0.10
     Davidson diagonalization with overlap

---- Real-time Memory Report at c_bands before calling an iterative solver
             0 MiB given to the printing process from OS
             0 MiB allocation reported by mallinfo(arena+hblkhd)
             0 MiB available memory on the node where the printing process lives
------------------
     ethr =  3.13E-06,  avg # of iterations =  4.0

     total cpu time spent up to now is        2.3 secs

     total energy              =    -114.65205142 Ry
     estimated scf accuracy    <       0.00016370 Ry

     iteration #  7     ecut=    30.00 Ry     beta= 0.10
     Davidson diagonalization with overlap

---- Real-time Memory Report at c_bands before calling an iterative solver
             0 MiB given to the printing process from OS
             0 MiB allocation reported by mallinfo(arena+hblkhd)
             0 MiB available memory on the node where the printing process lives
------------------
     ethr =  1.64E-06,  avg # of iterations =  3.0

     total cpu time spent up to now is        2.5 secs

     total energy              =    -114.65205407 Ry
     estimated scf accuracy    <       0.00001033 Ry

     iteration #  8     ecut=    30.00 Ry     beta= 0.10
     Davidson diagonalization with overlap

---- Real-time Memory Report at c_bands before calling an iterative solver
             0 MiB given to the printing process from OS
             0 MiB allocation reported by mallinfo(arena+hblkhd)
             0 MiB available memory on the node where the printing process lives
------------------
     c_bands:  1 eigenvalues not converged
     ethr =  1.03E-07,  avg # of iterations =  9.3

     total cpu time spent up to now is        2.7 secs

     total energy              =    -114.65205594 Ry
     estimated scf accuracy    <       0.00000088 Ry

     iteration #  9     ecut=    30.00 Ry     beta= 0.10
     Davidson diagonalization with overlap

---- Real-time Memory Report at c_bands before calling an iterative solver
             0 MiB given to the printing process from OS
             0 MiB allocation reported by mallinfo(arena+hblkhd)
             0 MiB available memory on the node where the printing process lives
------------------
     c_bands:  2 eigenvalues not converged
     ethr =  8.80E-09,  avg # of iterations = 10.7

     total cpu time spent up to now is        2.8 secs

     total energy              =    -114.65205581 Ry
     estimated scf accuracy    <       0.00000094 Ry

     iteration # 10     ecut=    30.00 Ry     beta= 0.10
     Davidson diagonalization with overlap

---- Real-time Memory Report at c_bands before calling an iterative solver
             0 MiB given to the printing process from OS
             0 MiB allocation reported by mallinfo(arena+hblkhd)
             0 MiB available memory on the node where the printing process lives
------------------
     ethr =  8.80E-09,  avg # of iterations =  8.0

     total cpu time spent up to now is        3.0 secs

     total energy              =    -114.65205585 Ry
     estimated scf accuracy    <       0.00000008 Ry

     iteration # 11     ecut=    30.00 Ry     beta= 0.10
     Davidson diagonalization with overlap

---- Real-time Memory Report at c_bands before calling an iterative solver
             0 MiB given to the printing process from OS
             0 MiB allocation reported by mallinfo(arena+hblkhd)
             0 MiB available memory on the node where the printing process lives
------------------
     ethr =  8.14E-10,  avg # of iterations =  6.7

     total cpu time spent up to now is        3.2 secs

     total energy              =    -114.65205589 Ry
     estimated scf accuracy    <       0.00000002 Ry

     iteration # 12     ecut=    30.00 Ry     beta= 0.10
     Davidson diagonalization with overlap

---- Real-time Memory Report at c_bands before calling an iterative solver
             0 MiB given to the printing process from OS
             0 MiB allocation reported by mallinfo(arena+hblkhd)
             0 MiB available memory on the node where the printing process lives
------------------
     c_bands:  1 eigenvalues not converged
     ethr =  1.59E-10,  avg # of iterations = 12.7

     total cpu time spent up to now is        3.4 secs

     total energy              =    -114.65205590 Ry
     estimated scf accuracy    <          3.5E-10 Ry

     iteration # 13     ecut=    30.00 Ry     beta= 0.10
     Davidson diagonalization with overlap

---- Real-time Memory Report at c_bands before calling an iterative solver
             0 MiB given to the printing process from OS
             0 MiB allocation reported by mallinfo(arena+hblkhd)
             0 MiB available memory on the node where the printing process lives
------------------
     c_bands:  2 eigenvalues not converged
     ethr =  3.46E-12,  avg # of iterations =  9.3

     total cpu time spent up to now is        3.6 secs

     total energy              =    -114.65205590 Ry
     estimated scf accuracy    <          1.4E-10 Ry

     iteration # 14     ecut=    30.00 Ry     beta= 0.10
     Davidson diagonalization with overlap

---- Real-time Memory Report at c_bands before calling an iterative solver
             0 MiB given to the printing process from OS
             0 MiB allocation reported by mallinfo(arena+hblkhd)
             0 MiB available memory on the node where the printing process lives
------------------
     c_bands:  2 eigenvalues not converged
     ethr =  1.36E-12,  avg # of iterations = 10.0

     total cpu time spent up to now is        3.8 secs

     total energy              =    -114.65205590 Ry
     estimated scf accuracy    <          1.5E-10 Ry

     iteration # 15     ecut=    30.00 Ry     beta= 0.10
     Davidson diagonalization with overlap

---- Real-time Memory Report at c_bands before calling an iterative solver
             0 MiB given to the printing process from OS
             0 MiB allocation reported by mallinfo(arena+hblkhd)
             0 MiB available memory on the node where the printing process lives
------------------
     c_bands:  2 eigenvalues not converged
     ethr =  1.36E-12,  avg # of iterations = 10.0

     total cpu time spent up to now is        4.0 secs

     End of self-consistent calculation

          k = 0.0000 0.0000 0.0000 (  2777 PWs)   bands (ev):

   -89.5263 -89.5263 -45.2117 -45.2117 -44.9746 -44.9746 -44.9696 -44.9696
    -4.3323  -4.3323   1.6468   1.6468   1.6553   1.6553   1.6601   1.6601
     1.7848   1.7848   2.7952   2.7952   2.7994   2.7994   6.9110   6.9110

     occupation numbers
     1.0000   1.0000   1.0000   1.0000   1.0000   1.0000   1.0000   1.0000
     1.0000   1.0000   0.0000   0.0000   0.0000   0.0000   0.0000   0.0000
     0.0000   0.0000   0.0000   0.0000   0.0000   0.0000   0.0000   0.0000

          k = 0.1250 0.0625-0.1875 (  2770 PWs)   bands (ev):

   -89.5214 -89.5214 -45.1891 -45.1891 -44.9689 -44.9689 -44.8691 -44.8690
    -4.1544  -4.1544   0.3510   0.3510   0.9830   0.9830   1.5330   1.5330
     2.9528   2.9528   3.6638   3.6638   4.2603   4.2603   4.9181   4.9181

     occupation numbers
     1.0000   1.0000   1.0000   1.0000   1.0000   1.0000   1.0000   1.0000
     1.0000   1.0000   0.0000   0.0000   0.0000   0.0000   0.0000   0.0000
     0.0000   0.0000   0.0000   0.0000   0.0000   0.0000   0.0000   0.0000

          k =-0.1250-0.0625 0.1875 (  2770 PWs)   bands (ev):

   -89.5214 -89.5214 -45.1891 -45.1891 -44.9689 -44.9689 -44.8691 -44.8690
    -4.1544  -4.1544   0.3510   0.3510   0.9830   0.9830   1.5330   1.5330
     2.9528   2.9528   3.6638   3.6638   4.2603   4.2603   4.9181   4.9181

     occupation numbers
     1.0000   1.0000   1.0000   1.0000   1.0000   1.0000   1.0000   1.0000
     1.0000   1.0000   0.0000   0.0000   0.0000   0.0000   0.0000   0.0000
     0.0000   0.0000   0.0000   0.0000   0.0000   0.0000   0.0000   0.0000

     the Fermi energy is    -1.9089 ev

!    total energy              =    -114.65205590 Ry
     estimated scf accuracy    <          3.5E-12 Ry
     smearing contrib. (-TS)   =       0.00000000 Ry
     internal energy E=F+TS    =    -114.65205590 Ry

     The total energy is F=E-TS. E is the sum of the following terms:
     one-electron contribution =    -128.95831331 Ry
     hartree contribution      =      57.03338388 Ry
     xc contribution           =     -14.35415163 Ry
     ewald contribution        =     -28.37297483 Ry

     convergence has been achieved in  15 iterations

     Writing all to output data dir ./scratch/mg_soc_qe_v1.save/ :
     XML data file, charge density, pseudopotentials, collected wavefunctions

     init_run     :      0.54s CPU      0.55s WALL (       1 calls)
     electrons    :      3.38s CPU      3.47s WALL (       1 calls)

     Called by init_run:
     wfcinit      :      0.26s CPU      0.27s WALL (       1 calls)
     wfcinit:atom :      0.00s CPU      0.00s WALL (       3 calls)
     wfcinit:wfcr :      0.25s CPU      0.26s WALL (       3 calls)
     potinit      :      0.01s CPU      0.01s WALL (       1 calls)
     hinit0       :      0.27s CPU      0.27s WALL (       1 calls)

     Called by electrons:
     c_bands      :      3.03s CPU      3.09s WALL (      15 calls)
     sum_band     :      0.23s CPU      0.24s WALL (      15 calls)
     v_of_rho     :      0.08s CPU      0.08s WALL (      16 calls)
     v_h          :      0.00s CPU      0.00s WALL (      16 calls)
     v_xc         :      0.07s CPU      0.08s WALL (      16 calls)
     mix_rho      :      0.04s CPU      0.06s WALL (      15 calls)

     Called by c_bands:
     init_us_2    :      0.01s CPU      0.01s WALL (      93 calls)
     cegterg      :      2.99s CPU      3.05s WALL (      48 calls)

     Called by sum_band:
     sum_band:wei :      0.00s CPU      0.00s WALL (      15 calls)
     sum_band:loo :      0.21s CPU      0.22s WALL (      15 calls)
     sum_band:buf :      0.00s CPU      0.00s WALL (      45 calls)
     sum_band:ini :      0.00s CPU      0.01s WALL (      45 calls)

     Called by *egterg:
     cdiaghg      :      0.09s CPU      0.09s WALL (     440 calls)
     cegterg:over :      0.32s CPU      0.32s WALL (     395 calls)
     cegterg:upda :      0.21s CPU      0.21s WALL (     395 calls)
     cegterg:last :      0.34s CPU      0.34s WALL (     186 calls)
     h_psi        :      2.21s CPU      2.26s WALL (     446 calls)
     g_psi        :      0.01s CPU      0.01s WALL (     395 calls)

     Called by h_psi:
     h_psi:calbec :      0.07s CPU      0.07s WALL (     446 calls)
     vloc_psi     :      2.06s CPU      2.10s WALL (     446 calls)
                                        0.00s GPU  (     446 calls)
     add_vuspsi   :      0.06s CPU      0.07s WALL (     446 calls)

     General routines
     calbec       :      0.07s CPU      0.07s WALL (     446 calls)
     fft          :      0.27s CPU      0.28s WALL (     249 calls)
     ffts         :      0.01s CPU      0.01s WALL (      60 calls)
     fftw         :      2.01s CPU      2.02s WALL (   21268 calls)

     Parallel routines

     PWSCF        :      3.93s CPU      4.05s WALL


   This run was terminated on:   8:18:58   7Sep2026

=------------------------------------------------------------------------------=
   JOB DONE.
=------------------------------------------------------------------------------=
