
     Program PWSCF v.7.5 starts on  5Sep2026 at 15:49: 0

     This program is part of the open-source Quantum ESPRESSO suite
     for quantum simulation of materials; please cite
         "P. Giannozzi et al., J. Phys.:Condens. Matter 21 395502 (2009);
         "P. Giannozzi et al., J. Phys.:Condens. Matter 29 465901 (2017);
         "P. Giannozzi et al., J. Chem. Phys. 152 154105 (2020);
          URL http://www.quantum-espresso.org",
     in publications or presentations arising from this work. More details at
     http://www.quantum-espresso.org/quote

     Parallel version (MPI), running on     1 processors

     MPI processes distributed on     1 nodes
     0 MiB available memory on the printing compute node when the environment starts

     Reading input from qe.in

     Current dimensions of program PWSCF are:
     Max number of different atomic species (ntypx) = 10
     Max number of k-points (npk) =  40000
     Max angular momentum in pseudopotentials (lmaxx) =  4

     Subspace diagonalization in iterative solution of the eigenvalue problem:
     a serial algorithm will be used


     G-vector sticks info
     --------------------
     sticks:   dense  smooth     PW     G-vecs:    dense   smooth      PW
     Sum        1453    1453    421                36325    36325    5769

     Using Slab Decomposition



     bravais-lattice index     =            0
     lattice parameter (alat)  =       7.2549  a.u.
     unit-cell volume          =     270.0114 (a.u.)^3
     number of atoms/cell      =            2
     number of atomic types    =            1
     number of electrons       =         8.00
     number of Kohn-Sham states=            8
     kinetic-energy cutoff     =     100.0000  Ry
     charge density cutoff     =     400.0000  Ry
     scf convergence threshold =      1.0E-10
     mixing beta               =       0.7000
     number of iterations used =            8  plain     mixing
     Exchange-correlation= SLA  PW   NOGX NOGC
                           (   1   4   0   0   0   0   0)

     celldm(1)=   7.254916  celldm(2)=   0.000000  celldm(3)=   0.000000
     celldm(4)=   0.000000  celldm(5)=   0.000000  celldm(6)=   0.000000

     crystal axes: (cart. coord. in units of alat)
               a(1) = (   0.000000   0.707107   0.707107 )
               a(2) = (   0.707107   0.000000   0.707107 )
               a(3) = (   0.707107   0.707107   0.000000 )

     reciprocal axes: (cart. coord. in units 2 pi/alat)
               b(1) = ( -0.707107  0.707107  0.707107 )
               b(2) = (  0.707107 -0.707107  0.707107 )
               b(3) = (  0.707107  0.707107 -0.707107 )


     PseudoPot. # 1 for Si read from file:
     ../pseudo/Si.upf
     MD5 check sum: 9e2d726316af3d4752eea8ab0afbb951
     Pseudo is Norm-conserving + core correction, Zval =  4.0
     Generated using ONCVPSP code by D. R. Hamann
     Using radial grid of 1510 points,  6 beta functions with:
                l(1) =   0
                l(2) =   0
                l(3) =   1
                l(4) =   1
                l(5) =   2
                l(6) =   2

     atomic species   valence    mass     pseudopotential
     Si                4.00    28.08550     Si( 1.00)

     No symmetry found


                                    s                        frac. trans.

      isym =  1     identity

 cryst.   s( 1) = (     1          0          0      )
                  (     0          1          0      )
                  (     0          0          1      )

 cart.    s( 1) = (  1.0000000 -0.0000000  0.0000000 )
                  ( -0.0000000  1.0000000  0.0000000 )
                  ( -0.0000000  0.0000000  1.0000000 )


   Cartesian axes

     site n.     atom                  positions (alat units)
         1        Si     tau(   1) = (   0.0000000   0.0000000   0.0000000  )
         2        Si     tau(   2) = (   0.3535534   0.3535534   0.3535534  )

   Crystallographic axes

     site n.     atom                  positions (cryst. coord.)
         1        Si     tau(   1) = (  0.0000000  0.0000000  0.0000000  )
         2        Si     tau(   2) = (  0.2500000  0.2500000  0.2500000  )

     number of k points=    64
                       cart. coord. in units 2pi/alat
        k(    1) = (   0.0000000   0.0000000   0.0000000), wk =   0.0312500
        k(    2) = (   0.1767767   0.1767767  -0.1767767), wk =   0.0312500
        k(    3) = (  -0.3535534  -0.3535534   0.3535534), wk =   0.0312500
        k(    4) = (  -0.1767767  -0.1767767   0.1767767), wk =   0.0312500
        k(    5) = (   0.1767767  -0.1767767   0.1767767), wk =   0.0312500
        k(    6) = (   0.3535534   0.0000000   0.0000000), wk =   0.0312500
        k(    7) = (  -0.1767767  -0.5303301   0.5303301), wk =   0.0312500
        k(    8) = (   0.0000000  -0.3535534   0.3535534), wk =   0.0312500
        k(    9) = (  -0.3535534   0.3535534  -0.3535534), wk =   0.0312500
        k(   10) = (  -0.1767767   0.5303301  -0.5303301), wk =   0.0312500
        k(   11) = (  -0.7071068   0.0000000   0.0000000), wk =   0.0312500
        k(   12) = (  -0.5303301   0.1767767  -0.1767767), wk =   0.0312500
        k(   13) = (  -0.1767767   0.1767767  -0.1767767), wk =   0.0312500
        k(   14) = (   0.0000000   0.3535534  -0.3535534), wk =   0.0312500
        k(   15) = (  -0.5303301  -0.1767767   0.1767767), wk =   0.0312500
        k(   16) = (  -0.3535534   0.0000000   0.0000000), wk =   0.0312500
        k(   17) = (  -0.1767767   0.1767767   0.1767767), wk =   0.0312500
        k(   18) = (   0.0000000   0.3535534   0.0000000), wk =   0.0312500
        k(   19) = (  -0.5303301  -0.1767767   0.5303301), wk =   0.0312500
        k(   20) = (  -0.3535534   0.0000000   0.3535534), wk =   0.0312500
        k(   21) = (   0.0000000   0.0000000   0.3535534), wk =   0.0312500
        k(   22) = (   0.1767767   0.1767767   0.1767767), wk =   0.0312500
        k(   23) = (  -0.3535534  -0.3535534   0.7071068), wk =   0.0312500
        k(   24) = (  -0.1767767  -0.1767767   0.5303301), wk =   0.0312500
        k(   25) = (  -0.5303301   0.5303301  -0.1767767), wk =   0.0312500
        k(   26) = (  -0.3535534   0.7071068  -0.3535534), wk =   0.0312500
        k(   27) = (  -0.8838835   0.1767767   0.1767767), wk =   0.0312500
        k(   28) = (  -0.7071068   0.3535534   0.0000000), wk =   0.0312500
        k(   29) = (  -0.3535534   0.3535534   0.0000000), wk =   0.0312500
        k(   30) = (  -0.1767767   0.5303301  -0.1767767), wk =   0.0312500
        k(   31) = (  -0.7071068   0.0000000   0.3535534), wk =   0.0312500
        k(   32) = (  -0.5303301   0.1767767   0.1767767), wk =   0.0312500
        k(   33) = (   0.3535534  -0.3535534  -0.3535534), wk =   0.0312500
        k(   34) = (   0.5303301  -0.1767767  -0.5303301), wk =   0.0312500
        k(   35) = (   0.0000000  -0.7071068   0.0000000), wk =   0.0312500
        k(   36) = (   0.1767767  -0.5303301  -0.1767767), wk =   0.0312500
        k(   37) = (   0.5303301  -0.5303301  -0.1767767), wk =   0.0312500
        k(   38) = (   0.7071068  -0.3535534  -0.3535534), wk =   0.0312500
        k(   39) = (   0.1767767  -0.8838835   0.1767767), wk =   0.0312500
        k(   40) = (   0.3535534  -0.7071068   0.0000000), wk =   0.0312500
        k(   41) = (   0.0000000   0.0000000  -0.7071068), wk =   0.0312500
        k(   42) = (   0.1767767   0.1767767  -0.8838835), wk =   0.0312500
        k(   43) = (  -0.3535534  -0.3535534  -0.3535534), wk =   0.0312500
        k(   44) = (  -0.1767767  -0.1767767  -0.5303301), wk =   0.0312500
        k(   45) = (   0.1767767  -0.1767767  -0.5303301), wk =   0.0312500
        k(   46) = (   0.3535534   0.0000000  -0.7071068), wk =   0.0312500
        k(   47) = (  -0.1767767  -0.5303301  -0.1767767), wk =   0.0312500
        k(   48) = (   0.0000000  -0.3535534  -0.3535534), wk =   0.0312500
        k(   49) = (   0.1767767  -0.1767767  -0.1767767), wk =   0.0312500
        k(   50) = (   0.3535534   0.0000000  -0.3535534), wk =   0.0312500
        k(   51) = (  -0.1767767  -0.5303301   0.1767767), wk =   0.0312500
        k(   52) = (   0.0000000  -0.3535534   0.0000000), wk =   0.0312500
        k(   53) = (   0.3535534  -0.3535534   0.0000000), wk =   0.0312500
        k(   54) = (   0.5303301  -0.1767767  -0.1767767), wk =   0.0312500
        k(   55) = (   0.0000000  -0.7071068   0.3535534), wk =   0.0312500
        k(   56) = (   0.1767767  -0.5303301   0.1767767), wk =   0.0312500
        k(   57) = (  -0.1767767   0.1767767  -0.5303301), wk =   0.0312500
        k(   58) = (   0.0000000   0.3535534  -0.7071068), wk =   0.0312500
        k(   59) = (  -0.5303301  -0.1767767  -0.1767767), wk =   0.0312500
        k(   60) = (  -0.3535534   0.0000000  -0.3535534), wk =   0.0312500
        k(   61) = (   0.0000000   0.0000000  -0.3535534), wk =   0.0312500
        k(   62) = (   0.1767767   0.1767767  -0.5303301), wk =   0.0312500
        k(   63) = (  -0.3535534  -0.3535534   0.0000000), wk =   0.0312500
        k(   64) = (  -0.1767767  -0.1767767  -0.1767767), wk =   0.0312500

                       cryst. coord.
        k(    1) = (   0.0000000   0.0000000   0.0000000), wk =   0.0312500
        k(    2) = (   0.0000000   0.0000000   0.2500000), wk =   0.0312500
        k(    3) = (  -0.0000000  -0.0000000  -0.5000000), wk =   0.0312500
        k(    4) = (  -0.0000000  -0.0000000  -0.2500000), wk =   0.0312500
        k(    5) = (  -0.0000000   0.2500000  -0.0000000), wk =   0.0312500
        k(    6) = (   0.0000000   0.2500000   0.2500000), wk =   0.0312500
        k(    7) = (   0.0000000   0.2500000  -0.5000000), wk =   0.0312500
        k(    8) = (  -0.0000000   0.2500000  -0.2500000), wk =   0.0312500
        k(    9) = (   0.0000000  -0.5000000   0.0000000), wk =   0.0312500
        k(   10) = (  -0.0000000  -0.5000000   0.2500000), wk =   0.0312500
        k(   11) = (   0.0000000  -0.5000000  -0.5000000), wk =   0.0312500
        k(   12) = (   0.0000000  -0.5000000  -0.2500000), wk =   0.0312500
        k(   13) = (   0.0000000  -0.2500000   0.0000000), wk =   0.0312500
        k(   14) = (   0.0000000  -0.2500000   0.2500000), wk =   0.0312500
        k(   15) = (  -0.0000000  -0.2500000  -0.5000000), wk =   0.0312500
        k(   16) = (   0.0000000  -0.2500000  -0.2500000), wk =   0.0312500
        k(   17) = (   0.2500000  -0.0000000   0.0000000), wk =   0.0312500
        k(   18) = (   0.2500000   0.0000000   0.2500000), wk =   0.0312500
        k(   19) = (   0.2500000   0.0000000  -0.5000000), wk =   0.0312500
        k(   20) = (   0.2500000  -0.0000000  -0.2500000), wk =   0.0312500
        k(   21) = (   0.2500000   0.2500000   0.0000000), wk =   0.0312500
        k(   22) = (   0.2500000   0.2500000   0.2500000), wk =   0.0312500
        k(   23) = (   0.2500000   0.2500000  -0.5000000), wk =   0.0312500
        k(   24) = (   0.2500000   0.2500000  -0.2500000), wk =   0.0312500
        k(   25) = (   0.2500000  -0.5000000  -0.0000000), wk =   0.0312500
        k(   26) = (   0.2500000  -0.5000000   0.2500000), wk =   0.0312500
        k(   27) = (   0.2500000  -0.5000000  -0.5000000), wk =   0.0312500
        k(   28) = (   0.2500000  -0.5000000  -0.2500000), wk =   0.0312500
        k(   29) = (   0.2500000  -0.2500000   0.0000000), wk =   0.0312500
        k(   30) = (   0.2500000  -0.2500000   0.2500000), wk =   0.0312500
        k(   31) = (   0.2500000  -0.2500000  -0.5000000), wk =   0.0312500
        k(   32) = (   0.2500000  -0.2500000  -0.2500000), wk =   0.0312500
        k(   33) = (  -0.5000000   0.0000000  -0.0000000), wk =   0.0312500
        k(   34) = (  -0.5000000  -0.0000000   0.2500000), wk =   0.0312500
        k(   35) = (  -0.5000000   0.0000000  -0.5000000), wk =   0.0312500
        k(   36) = (  -0.5000000   0.0000000  -0.2500000), wk =   0.0312500
        k(   37) = (  -0.5000000   0.2500000   0.0000000), wk =   0.0312500
        k(   38) = (  -0.5000000   0.2500000   0.2500000), wk =   0.0312500
        k(   39) = (  -0.5000000   0.2500000  -0.5000000), wk =   0.0312500
        k(   40) = (  -0.5000000   0.2500000  -0.2500000), wk =   0.0312500
        k(   41) = (  -0.5000000  -0.5000000   0.0000000), wk =   0.0312500
        k(   42) = (  -0.5000000  -0.5000000   0.2500000), wk =   0.0312500
        k(   43) = (  -0.5000000  -0.5000000  -0.5000000), wk =   0.0312500
        k(   44) = (  -0.5000000  -0.5000000  -0.2500000), wk =   0.0312500
        k(   45) = (  -0.5000000  -0.2500000  -0.0000000), wk =   0.0312500
        k(   46) = (  -0.5000000  -0.2500000   0.2500000), wk =   0.0312500
        k(   47) = (  -0.5000000  -0.2500000  -0.5000000), wk =   0.0312500
        k(   48) = (  -0.5000000  -0.2500000  -0.2500000), wk =   0.0312500
        k(   49) = (  -0.2500000   0.0000000  -0.0000000), wk =   0.0312500
        k(   50) = (  -0.2500000   0.0000000   0.2500000), wk =   0.0312500
        k(   51) = (  -0.2500000  -0.0000000  -0.5000000), wk =   0.0312500
        k(   52) = (  -0.2500000   0.0000000  -0.2500000), wk =   0.0312500
        k(   53) = (  -0.2500000   0.2500000  -0.0000000), wk =   0.0312500
        k(   54) = (  -0.2500000   0.2500000   0.2500000), wk =   0.0312500
        k(   55) = (  -0.2500000   0.2500000  -0.5000000), wk =   0.0312500
        k(   56) = (  -0.2500000   0.2500000  -0.2500000), wk =   0.0312500
        k(   57) = (  -0.2500000  -0.5000000   0.0000000), wk =   0.0312500
        k(   58) = (  -0.2500000  -0.5000000   0.2500000), wk =   0.0312500
        k(   59) = (  -0.2500000  -0.5000000  -0.5000000), wk =   0.0312500
        k(   60) = (  -0.2500000  -0.5000000  -0.2500000), wk =   0.0312500
        k(   61) = (  -0.2500000  -0.2500000   0.0000000), wk =   0.0312500
        k(   62) = (  -0.2500000  -0.2500000   0.2500000), wk =   0.0312500
        k(   63) = (  -0.2500000  -0.2500000  -0.5000000), wk =   0.0312500
        k(   64) = (  -0.2500000  -0.2500000  -0.2500000), wk =   0.0312500

     Dense  grid:    36325 G-vectors     FFT dimensions: (  48,  48,  48)

     Dynamical RAM for                 wfc:       0.56 MB

     Dynamical RAM for     wfc (w. buffer):      36.18 MB

     Dynamical RAM for           str. fact:       0.55 MB

     Dynamical RAM for           local pot:       0.00 MB

     Dynamical RAM for          nlocal pot:       2.50 MB

     Dynamical RAM for                qrad:       1.61 MB

     Dynamical RAM for          rho,v,vnew:       4.19 MB

     Dynamical RAM for               rhoin:       1.40 MB

     Dynamical RAM for            rho*nmix:       8.87 MB

     Dynamical RAM for           G-vectors:       2.36 MB

     Dynamical RAM for          h,s,v(r/c):       0.01 MB

     Dynamical RAM for          <psi|beta>:       0.00 MB

     Dynamical RAM for                 psi:       1.11 MB

     Dynamical RAM for                hpsi:       1.11 MB

     Dynamical RAM for      wfcinit/wfcrot:       1.11 MB

     Estimated static dynamical RAM per process >      54.12 MB

     Estimated max dynamical RAM per process >      65.23 MB

     Initial potential from superposition of free atoms

     starting charge       7.9989, renormalised to       8.0000
     Starting wfcs are    8 randomized atomic wfcs

     total cpu time spent up to now is        1.1 secs

     Self-consistent Calculation

     iteration #  1     ecut=   100.00 Ry     beta= 0.70
     Davidson diagonalization with overlap

---- Real-time Memory Report at c_bands before calling an iterative solver
             0 MiB given to the printing process from OS
             0 MiB allocation reported by mallinfo(arena+hblkhd)
             0 MiB available memory on the node where the printing process lives
------------------
     ethr =  1.00E-02,  avg # of iterations =  4.7

     Threshold (ethr) on eigenvalues was too large:
     Diagonalizing with lowered threshold

     Davidson diagonalization with overlap

---- Real-time Memory Report at c_bands before calling an iterative solver
             0 MiB given to the printing process from OS
             0 MiB allocation reported by mallinfo(arena+hblkhd)
             0 MiB available memory on the node where the printing process lives
------------------
     ethr =  7.56E-04,  avg # of iterations =  2.8

     total cpu time spent up to now is        4.1 secs

     total energy              =     -17.03240094 Ry
     estimated scf accuracy    <       0.06482426 Ry

     iteration #  2     ecut=   100.00 Ry     beta= 0.70
     Davidson diagonalization with overlap

---- Real-time Memory Report at c_bands before calling an iterative solver
             0 MiB given to the printing process from OS
             0 MiB allocation reported by mallinfo(arena+hblkhd)
             0 MiB available memory on the node where the printing process lives
------------------
     ethr =  8.10E-04,  avg # of iterations =  1.3

     total cpu time spent up to now is        5.2 secs

     total energy              =     -17.03592948 Ry
     estimated scf accuracy    <       0.00203972 Ry

     iteration #  3     ecut=   100.00 Ry     beta= 0.70
     Davidson diagonalization with overlap

---- Real-time Memory Report at c_bands before calling an iterative solver
             0 MiB given to the printing process from OS
             0 MiB allocation reported by mallinfo(arena+hblkhd)
             0 MiB available memory on the node where the printing process lives
------------------
     ethr =  2.55E-05,  avg # of iterations =  4.0

     total cpu time spent up to now is        6.6 secs

     total energy              =     -17.03606360 Ry
     estimated scf accuracy    <       0.00004813 Ry

     iteration #  4     ecut=   100.00 Ry     beta= 0.70
     Davidson diagonalization with overlap

---- Real-time Memory Report at c_bands before calling an iterative solver
             0 MiB given to the printing process from OS
             0 MiB allocation reported by mallinfo(arena+hblkhd)
             0 MiB available memory on the node where the printing process lives
------------------
     ethr =  6.02E-07,  avg # of iterations =  4.1

     total cpu time spent up to now is        8.2 secs

     total energy              =     -17.03607555 Ry
     estimated scf accuracy    <       0.00000024 Ry

     iteration #  5     ecut=   100.00 Ry     beta= 0.70
     Davidson diagonalization with overlap

---- Real-time Memory Report at c_bands before calling an iterative solver
             0 MiB given to the printing process from OS
             0 MiB allocation reported by mallinfo(arena+hblkhd)
             0 MiB available memory on the node where the printing process lives
------------------
     ethr =  3.01E-09,  avg # of iterations =  7.9

     total cpu time spent up to now is       10.6 secs

     total energy              =     -17.03607589 Ry
     estimated scf accuracy    <          8.0E-09 Ry

     iteration #  6     ecut=   100.00 Ry     beta= 0.70
     Davidson diagonalization with overlap

---- Real-time Memory Report at c_bands before calling an iterative solver
             0 MiB given to the printing process from OS
             0 MiB allocation reported by mallinfo(arena+hblkhd)
             0 MiB available memory on the node where the printing process lives
------------------
     ethr =  1.00E-10,  avg # of iterations =  5.9

     total cpu time spent up to now is       12.3 secs

     total energy              =     -17.03607590 Ry
     estimated scf accuracy    <          2.0E-10 Ry

     iteration #  7     ecut=   100.00 Ry     beta= 0.70
     Davidson diagonalization with overlap

---- Real-time Memory Report at c_bands before calling an iterative solver
             0 MiB given to the printing process from OS
             0 MiB allocation reported by mallinfo(arena+hblkhd)
             0 MiB available memory on the node where the printing process lives
------------------
     ethr =  2.46E-12,  avg # of iterations =  5.1

     total cpu time spent up to now is       14.0 secs

     End of self-consistent calculation

          k = 0.0000 0.0000 0.0000 (  4573 PWs)   bands (ev):

    -5.8903   6.0871   6.0871   6.0871   8.6015   8.6015   8.6015   9.2615

     occupation numbers
     1.0000   1.0000   1.0000   1.0000   0.0000   0.0000   0.0000   0.0000

          k = 0.1768 0.1768-0.1768 (  4567 PWs)   bands (ev):

    -5.0895   2.1309   5.3244   5.3244   7.9961   9.5426   9.5426  12.8325

     occupation numbers
     1.0000   1.0000   1.0000   1.0000   0.0000   0.0000   0.0000   0.0000

          k =-0.3536-0.3536 0.3536 (  4512 PWs)   bands (ev):

    -3.5491  -0.9222   4.8870   4.8870   7.4960   9.3709   9.3709  13.5824

     occupation numbers
     1.0000   1.0000   1.0000   1.0000   0.0000   0.0000   0.0000   0.0000

          k =-0.1768-0.1768 0.1768 (  4567 PWs)   bands (ev):

    -5.0895   2.1309   5.3244   5.3244   7.9961   9.5426   9.5426  12.8325

     occupation numbers
     1.0000   1.0000   1.0000   1.0000   0.0000   0.0000   0.0000   0.0000

          k = 0.1768-0.1768 0.1768 (  4567 PWs)   bands (ev):

    -5.0895   2.1309   5.3244   5.3244   7.9961   9.5426   9.5426  12.8325

     occupation numbers
     1.0000   1.0000   1.0000   1.0000   0.0000   0.0000   0.0000   0.0000

          k = 0.3536 0.0000 0.0000 (  4584 PWs)   bands (ev):

    -4.8074   2.5495   4.1869   4.1869   7.1142   9.1072  11.7854  11.7854

     occupation numbers
     1.0000   1.0000   1.0000   1.0000   0.0000   0.0000   0.0000   0.0000

          k =-0.1768-0.5303 0.5303 (  4555 PWs)   bands (ev):

    -3.1667  -0.3170   2.5155   3.8730   7.4961  10.4390  11.7301  11.9491

     occupation numbers
     1.0000   1.0000   1.0000   1.0000   0.0000   0.0000   0.0000   0.0000

          k = 0.0000-0.3536 0.3536 (  4564 PWs)   bands (ev):

    -3.8427   0.5872   2.2923   4.7551   8.4377  10.8188  11.1233  12.0935

     occupation numbers
     1.0000   1.0000   1.0000   1.0000   0.0000   0.0000   0.0000   0.0000

          k =-0.3536 0.3536-0.3536 (  4512 PWs)   bands (ev):

    -3.5491  -0.9222   4.8870   4.8870   7.4960   9.3709   9.3709  13.5824

     occupation numbers
     1.0000   1.0000   1.0000   1.0000   0.0000   0.0000   0.0000   0.0000

          k =-0.1768 0.5303-0.5303 (  4555 PWs)   bands (ev):

    -3.1667  -0.3170   2.5155   3.8730   7.4961  10.4390  11.7301  11.9491

     occupation numbers
     1.0000   1.0000   1.0000   1.0000   0.0000   0.0000   0.0000   0.0000

          k =-0.7071 0.0000 0.0000 (  4568 PWs)   bands (ev):

    -1.7434  -1.7434   3.2235   3.2235   6.6741   6.6741  16.0514  16.0514

     occupation numbers
     1.0000   1.0000   1.0000   1.0000   0.0000   0.0000   0.0000   0.0000

          k =-0.5303 0.1768-0.1768 (  4555 PWs)   bands (ev):

    -3.1667  -0.3170   2.5155   3.8730   7.4961  10.4390  11.7301  11.9491

     occupation numbers
     1.0000   1.0000   1.0000   1.0000   0.0000   0.0000   0.0000   0.0000

          k =-0.1768 0.1768-0.1768 (  4567 PWs)   bands (ev):

    -5.0895   2.1309   5.3244   5.3244   7.9961   9.5426   9.5426  12.8325

     occupation numbers
     1.0000   1.0000   1.0000   1.0000   0.0000   0.0000   0.0000   0.0000

          k = 0.0000 0.3536-0.3536 (  4564 PWs)   bands (ev):

    -3.8427   0.5872   2.2923   4.7551   8.4377  10.8188  11.1233  12.0935

     occupation numbers
     1.0000   1.0000   1.0000   1.0000   0.0000   0.0000   0.0000   0.0000

          k =-0.5303-0.1768 0.1768 (  4555 PWs)   bands (ev):

    -3.1667  -0.3170   2.5155   3.8730   7.4961  10.4390  11.7301  11.9491

     occupation numbers
     1.0000   1.0000   1.0000   1.0000   0.0000   0.0000   0.0000   0.0000

          k =-0.3536 0.0000 0.0000 (  4584 PWs)   bands (ev):

    -4.8074   2.5495   4.1869   4.1869   7.1142   9.1072  11.7854  11.7854

     occupation numbers
     1.0000   1.0000   1.0000   1.0000   0.0000   0.0000   0.0000   0.0000

          k =-0.1768 0.1768 0.1768 (  4567 PWs)   bands (ev):

    -5.0895   2.1309   5.3244   5.3244   7.9961   9.5426   9.5426  12.8325

     occupation numbers
     1.0000   1.0000   1.0000   1.0000   0.0000   0.0000   0.0000   0.0000

          k = 0.0000 0.3536 0.0000 (  4584 PWs)   bands (ev):

    -4.8074   2.5495   4.1869   4.1869   7.1142   9.1072  11.7854  11.7854

     occupation numbers
     1.0000   1.0000   1.0000   1.0000   0.0000   0.0000   0.0000   0.0000

          k =-0.5303-0.1768 0.5303 (  4555 PWs)   bands (ev):

    -3.1667  -0.3170   2.5155   3.8730   7.4961  10.4390  11.7301  11.9491

     occupation numbers
     1.0000   1.0000   1.0000   1.0000   0.0000   0.0000   0.0000   0.0000

          k =-0.3536 0.0000 0.3536 (  4564 PWs)   bands (ev):

    -3.8427   0.5872   2.2923   4.7551   8.4377  10.8188  11.1233  12.0935

     occupation numbers
     1.0000   1.0000   1.0000   1.0000   0.0000   0.0000   0.0000   0.0000

          k = 0.0000 0.0000 0.3536 (  4584 PWs)   bands (ev):

    -4.8074   2.5495   4.1869   4.1869   7.1142   9.1072  11.7854  11.7854

     occupation numbers
     1.0000   1.0000   1.0000   1.0000   0.0000   0.0000   0.0000   0.0000

          k = 0.1768 0.1768 0.1768 (  4567 PWs)   bands (ev):

    -5.0895   2.1309   5.3244   5.3244   7.9961   9.5426   9.5426  12.8325

     occupation numbers
     1.0000   1.0000   1.0000   1.0000   0.0000   0.0000   0.0000   0.0000

          k =-0.3536-0.3536 0.7071 (  4564 PWs)   bands (ev):

    -3.8427   0.5872   2.2923   4.7551   8.4377  10.8188  11.1233  12.0935

     occupation numbers
     1.0000   1.0000   1.0000   1.0000   0.0000   0.0000   0.0000   0.0000

          k =-0.1768-0.1768 0.5303 (  4555 PWs)   bands (ev):

    -3.1667  -0.3170   2.5155   3.8730   7.4961  10.4390  11.7301  11.9491

     occupation numbers
     1.0000   1.0000   1.0000   1.0000   0.0000   0.0000   0.0000   0.0000

          k =-0.5303 0.5303-0.1768 (  4555 PWs)   bands (ev):

    -3.1667  -0.3170   2.5155   3.8730   7.4961  10.4390  11.7301  11.9491

     occupation numbers
     1.0000   1.0000   1.0000   1.0000   0.0000   0.0000   0.0000   0.0000

          k =-0.3536 0.7071-0.3536 (  4564 PWs)   bands (ev):

    -3.8427   0.5872   2.2923   4.7551   8.4377  10.8188  11.1233  12.0935

     occupation numbers
     1.0000   1.0000   1.0000   1.0000   0.0000   0.0000   0.0000   0.0000

          k =-0.8839 0.1768 0.1768 (  4555 PWs)   bands (ev):

    -3.1667  -0.3170   2.5155   3.8730   7.4961  10.4390  11.7301  11.9491

     occupation numbers
     1.0000   1.0000   1.0000   1.0000   0.0000   0.0000   0.0000   0.0000

          k =-0.7071 0.3536 0.0000 (  4540 PWs)   bands (ev):

    -1.5751  -1.5751   2.1925   2.1925  10.2616  10.2616  10.9990  10.9990

     occupation numbers
     1.0000   1.0000   1.0000   1.0000   0.0000   0.0000   0.0000   0.0000

          k =-0.3536 0.3536 0.0000 (  4564 PWs)   bands (ev):

    -3.8427   0.5872   2.2923   4.7551   8.4377  10.8188  11.1233  12.0935

     occupation numbers
     1.0000   1.0000   1.0000   1.0000   0.0000   0.0000   0.0000   0.0000

          k =-0.1768 0.5303-0.1768 (  4555 PWs)   bands (ev):

    -3.1667  -0.3170   2.5155   3.8730   7.4961  10.4390  11.7301  11.9491

     occupation numbers
     1.0000   1.0000   1.0000   1.0000   0.0000   0.0000   0.0000   0.0000

          k =-0.7071 0.0000 0.3536 (  4540 PWs)   bands (ev):

    -1.5751  -1.5751   2.1925   2.1925  10.2616  10.2616  10.9990  10.9990

     occupation numbers
     1.0000   1.0000   1.0000   1.0000   0.0000   0.0000   0.0000   0.0000

          k =-0.5303 0.1768 0.1768 (  4555 PWs)   bands (ev):

    -3.1667  -0.3170   2.5155   3.8730   7.4961  10.4390  11.7301  11.9491

     occupation numbers
     1.0000   1.0000   1.0000   1.0000   0.0000   0.0000   0.0000   0.0000

          k = 0.3536-0.3536-0.3536 (  4512 PWs)   bands (ev):

    -3.5491  -0.9222   4.8870   4.8870   7.4960   9.3709   9.3709  13.5824

     occupation numbers
     1.0000   1.0000   1.0000   1.0000   0.0000   0.0000   0.0000   0.0000

          k = 0.5303-0.1768-0.5303 (  4555 PWs)   bands (ev):

    -3.1667  -0.3170   2.5155   3.8730   7.4961  10.4390  11.7301  11.9491

     occupation numbers
     1.0000   1.0000   1.0000   1.0000   0.0000   0.0000   0.0000   0.0000

          k = 0.0000-0.7071 0.0000 (  4568 PWs)   bands (ev):

    -1.7434  -1.7434   3.2235   3.2235   6.6741   6.6741  16.0514  16.0514

     occupation numbers
     1.0000   1.0000   1.0000   1.0000   0.0000   0.0000   0.0000   0.0000

          k = 0.1768-0.5303-0.1768 (  4555 PWs)   bands (ev):

    -3.1667  -0.3170   2.5155   3.8730   7.4961  10.4390  11.7301  11.9491

     occupation numbers
     1.0000   1.0000   1.0000   1.0000   0.0000   0.0000   0.0000   0.0000

          k = 0.5303-0.5303-0.1768 (  4555 PWs)   bands (ev):

    -3.1667  -0.3170   2.5155   3.8730   7.4961  10.4390  11.7301  11.9491

     occupation numbers
     1.0000   1.0000   1.0000   1.0000   0.0000   0.0000   0.0000   0.0000

          k = 0.7071-0.3536-0.3536 (  4564 PWs)   bands (ev):

    -3.8427   0.5872   2.2923   4.7551   8.4377  10.8188  11.1233  12.0935

     occupation numbers
     1.0000   1.0000   1.0000   1.0000   0.0000   0.0000   0.0000   0.0000

          k = 0.1768-0.8839 0.1768 (  4555 PWs)   bands (ev):

    -3.1667  -0.3170   2.5155   3.8730   7.4961  10.4390  11.7301  11.9491

     occupation numbers
     1.0000   1.0000   1.0000   1.0000   0.0000   0.0000   0.0000   0.0000

          k = 0.3536-0.7071 0.0000 (  4540 PWs)   bands (ev):

    -1.5751  -1.5751   2.1925   2.1925  10.2616  10.2616  10.9990  10.9990

     occupation numbers
     1.0000   1.0000   1.0000   1.0000   0.0000   0.0000   0.0000   0.0000

          k = 0.0000 0.0000-0.7071 (  4568 PWs)   bands (ev):

    -1.7434  -1.7434   3.2235   3.2235   6.6741   6.6741  16.0514  16.0514

     occupation numbers
     1.0000   1.0000   1.0000   1.0000   0.0000   0.0000   0.0000   0.0000

          k = 0.1768 0.1768-0.8839 (  4555 PWs)   bands (ev):

    -3.1667  -0.3170   2.5155   3.8730   7.4961  10.4390  11.7301  11.9491

     occupation numbers
     1.0000   1.0000   1.0000   1.0000   0.0000   0.0000   0.0000   0.0000

          k =-0.3536-0.3536-0.3536 (  4512 PWs)   bands (ev):

    -3.5491  -0.9222   4.8870   4.8870   7.4960   9.3709   9.3709  13.5824

     occupation numbers
     1.0000   1.0000   1.0000   1.0000   0.0000   0.0000   0.0000   0.0000

          k =-0.1768-0.1768-0.5303 (  4555 PWs)   bands (ev):

    -3.1667  -0.3170   2.5155   3.8730   7.4961  10.4390  11.7301  11.9491

     occupation numbers
     1.0000   1.0000   1.0000   1.0000   0.0000   0.0000   0.0000   0.0000

          k = 0.1768-0.1768-0.5303 (  4555 PWs)   bands (ev):

    -3.1667  -0.3170   2.5155   3.8730   7.4961  10.4390  11.7301  11.9491

     occupation numbers
     1.0000   1.0000   1.0000   1.0000   0.0000   0.0000   0.0000   0.0000

          k = 0.3536 0.0000-0.7071 (  4540 PWs)   bands (ev):

    -1.5751  -1.5751   2.1925   2.1925  10.2616  10.2616  10.9990  10.9990

     occupation numbers
     1.0000   1.0000   1.0000   1.0000   0.0000   0.0000   0.0000   0.0000

          k =-0.1768-0.5303-0.1768 (  4555 PWs)   bands (ev):

    -3.1667  -0.3170   2.5155   3.8730   7.4961  10.4390  11.7301  11.9491

     occupation numbers
     1.0000   1.0000   1.0000   1.0000   0.0000   0.0000   0.0000   0.0000

          k = 0.0000-0.3536-0.3536 (  4564 PWs)   bands (ev):

    -3.8427   0.5872   2.2923   4.7551   8.4377  10.8188  11.1233  12.0935

     occupation numbers
     1.0000   1.0000   1.0000   1.0000   0.0000   0.0000   0.0000   0.0000

          k = 0.1768-0.1768-0.1768 (  4567 PWs)   bands (ev):

    -5.0895   2.1309   5.3244   5.3244   7.9961   9.5426   9.5426  12.8325

     occupation numbers
     1.0000   1.0000   1.0000   1.0000   0.0000   0.0000   0.0000   0.0000

          k = 0.3536 0.0000-0.3536 (  4564 PWs)   bands (ev):

    -3.8427   0.5872   2.2923   4.7551   8.4377  10.8188  11.1233  12.0935

     occupation numbers
     1.0000   1.0000   1.0000   1.0000   0.0000   0.0000   0.0000   0.0000

          k =-0.1768-0.5303 0.1768 (  4555 PWs)   bands (ev):

    -3.1667  -0.3170   2.5155   3.8730   7.4961  10.4390  11.7301  11.9491

     occupation numbers
     1.0000   1.0000   1.0000   1.0000   0.0000   0.0000   0.0000   0.0000

          k = 0.0000-0.3536 0.0000 (  4584 PWs)   bands (ev):

    -4.8074   2.5495   4.1869   4.1869   7.1142   9.1072  11.7854  11.7854

     occupation numbers
     1.0000   1.0000   1.0000   1.0000   0.0000   0.0000   0.0000   0.0000

          k = 0.3536-0.3536 0.0000 (  4564 PWs)   bands (ev):

    -3.8427   0.5872   2.2923   4.7551   8.4377  10.8188  11.1233  12.0935

     occupation numbers
     1.0000   1.0000   1.0000   1.0000   0.0000   0.0000   0.0000   0.0000

          k = 0.5303-0.1768-0.1768 (  4555 PWs)   bands (ev):

    -3.1667  -0.3170   2.5155   3.8730   7.4961  10.4390  11.7301  11.9491

     occupation numbers
     1.0000   1.0000   1.0000   1.0000   0.0000   0.0000   0.0000   0.0000

          k = 0.0000-0.7071 0.3536 (  4540 PWs)   bands (ev):

    -1.5751  -1.5751   2.1925   2.1925  10.2616  10.2616  10.9990  10.9990

     occupation numbers
     1.0000   1.0000   1.0000   1.0000   0.0000   0.0000   0.0000   0.0000

          k = 0.1768-0.5303 0.1768 (  4555 PWs)   bands (ev):

    -3.1667  -0.3170   2.5155   3.8730   7.4961  10.4390  11.7301  11.9491

     occupation numbers
     1.0000   1.0000   1.0000   1.0000   0.0000   0.0000   0.0000   0.0000

          k =-0.1768 0.1768-0.5303 (  4555 PWs)   bands (ev):

    -3.1667  -0.3170   2.5155   3.8730   7.4961  10.4390  11.7301  11.9491

     occupation numbers
     1.0000   1.0000   1.0000   1.0000   0.0000   0.0000   0.0000   0.0000

          k = 0.0000 0.3536-0.7071 (  4540 PWs)   bands (ev):

    -1.5751  -1.5751   2.1925   2.1925  10.2616  10.2616  10.9990  10.9990

     occupation numbers
     1.0000   1.0000   1.0000   1.0000   0.0000   0.0000   0.0000   0.0000

          k =-0.5303-0.1768-0.1768 (  4555 PWs)   bands (ev):

    -3.1667  -0.3170   2.5155   3.8730   7.4961  10.4390  11.7301  11.9491

     occupation numbers
     1.0000   1.0000   1.0000   1.0000   0.0000   0.0000   0.0000   0.0000

          k =-0.3536 0.0000-0.3536 (  4564 PWs)   bands (ev):

    -3.8427   0.5872   2.2923   4.7551   8.4377  10.8188  11.1233  12.0935

     occupation numbers
     1.0000   1.0000   1.0000   1.0000   0.0000   0.0000   0.0000   0.0000

          k = 0.0000 0.0000-0.3536 (  4584 PWs)   bands (ev):

    -4.8074   2.5495   4.1869   4.1869   7.1142   9.1072  11.7854  11.7854

     occupation numbers
     1.0000   1.0000   1.0000   1.0000   0.0000   0.0000   0.0000   0.0000

          k = 0.1768 0.1768-0.5303 (  4555 PWs)   bands (ev):

    -3.1667  -0.3170   2.5155   3.8730   7.4961  10.4390  11.7301  11.9491

     occupation numbers
     1.0000   1.0000   1.0000   1.0000   0.0000   0.0000   0.0000   0.0000

          k =-0.3536-0.3536 0.0000 (  4564 PWs)   bands (ev):

    -3.8427   0.5872   2.2923   4.7551   8.4377  10.8188  11.1233  12.0935

     occupation numbers
     1.0000   1.0000   1.0000   1.0000   0.0000   0.0000   0.0000   0.0000

          k =-0.1768-0.1768-0.1768 (  4567 PWs)   bands (ev):

    -5.0895   2.1309   5.3244   5.3244   7.9961   9.5426   9.5426  12.8325

     occupation numbers
     1.0000   1.0000   1.0000   1.0000   0.0000   0.0000   0.0000   0.0000

     highest occupied, lowest unoccupied level (ev):     6.0871    6.6741

!    total energy              =     -17.03607590 Ry
     estimated scf accuracy    <          1.3E-12 Ry

     The total energy is the sum of the following terms:
     one-electron contribution =       4.85484646 Ry
     hartree contribution      =       1.11821474 Ry
     xc contribution           =      -6.20820752 Ry
     ewald contribution        =     -16.80092957 Ry

     convergence has been achieved in   7 iterations

     Writing all to output data dir ./scratch/si.save/ :
     XML data file, charge density, pseudopotentials, collected wavefunctions

     init_run     :      1.07s CPU      1.09s WALL (       1 calls)
     electrons    :     12.66s CPU     12.88s WALL (       1 calls)

     Called by init_run:
     wfcinit      :      0.68s CPU      0.70s WALL (       1 calls)
     wfcinit:atom :      0.01s CPU      0.01s WALL (      64 calls)
     wfcinit:wfcr :      0.62s CPU      0.63s WALL (      64 calls)
     potinit      :      0.01s CPU      0.01s WALL (       1 calls)
     hinit0       :      0.36s CPU      0.37s WALL (       1 calls)

     Called by electrons:
     c_bands      :     11.29s CPU     11.49s WALL (       8 calls)
     sum_band     :      1.35s CPU      1.36s WALL (       8 calls)
     v_of_rho     :      0.02s CPU      0.02s WALL (       8 calls)
     v_h          :      0.00s CPU      0.00s WALL (       8 calls)
     v_xc         :      0.02s CPU      0.02s WALL (       8 calls)
     mix_rho      :      0.01s CPU      0.01s WALL (       8 calls)

     Called by c_bands:
     init_us_2    :      0.32s CPU      0.33s WALL (    1088 calls)
     cegterg      :     10.17s CPU     10.35s WALL (     512 calls)

     Called by sum_band:
     sum_band:wei :      0.00s CPU      0.00s WALL (       8 calls)
     sum_band:loo :      1.34s CPU      1.35s WALL (       8 calls)
     sum_band:buf :      0.01s CPU      0.01s WALL (     512 calls)
     sum_band:ini :      0.15s CPU      0.16s WALL (     512 calls)

     Called by *egterg:
     cdiaghg      :      0.06s CPU      0.06s WALL (    2737 calls)
     cegterg:over :      0.33s CPU      0.33s WALL (    2289 calls)
     cegterg:upda :      0.20s CPU      0.20s WALL (    2289 calls)
     cegterg:last :      0.26s CPU      0.26s WALL (    1471 calls)
     h_psi        :      9.81s CPU      9.98s WALL (    2865 calls)
     g_psi        :      0.03s CPU      0.03s WALL (    2289 calls)

     Called by h_psi:
     h_psi:calbec :      0.49s CPU      0.50s WALL (    2865 calls)
     vloc_psi     :      8.79s CPU      8.95s WALL (    2865 calls)
                                        0.00s GPU  (    2865 calls)
     add_vuspsi   :      0.49s CPU      0.49s WALL (    2865 calls)

     General routines
     calbec       :      0.49s CPU      0.49s WALL (    2865 calls)
     fft          :      0.33s CPU      0.33s WALL (      25 calls)
     ffts         :      0.00s CPU      0.00s WALL (       8 calls)
     fftw         :      9.07s CPU      9.10s WALL (   32640 calls)

     Parallel routines

     PWSCF        :     13.75s CPU     14.03s WALL


   This run was terminated on:  15:49:14   5Sep2026

=------------------------------------------------------------------------------=
   JOB DONE.
=------------------------------------------------------------------------------=
